EA0
 1.0000000000000000
     4.787700    0.000000    0.000000
     0.000000    4.948000    0.000000
     0.000000    0.000000    6.915100
  Mg   O  Si
   4  12   4
Direct
  0.749999  0.459155  0.000000
  0.250001  0.459155  0.000000
  0.000000  0.959155  0.000000
  0.500000  0.959155  0.000000
  0.876179  0.708668  0.000000
  0.376179  0.708668  0.000000
  0.623821  0.708668  0.000000
  0.123821  0.708668  0.000000
  0.373825  0.208668  0.000000
  0.873825  0.208668  0.000000
  0.250001  0.713137  0.500000
  0.000000  0.213137  0.500000
  0.626175  0.208668  0.000000
  0.500000  0.213137  0.500000
  0.749999  0.713137  0.500000
  0.126175  0.208668  0.000000
  0.500000  0.910378  0.500000
  0.000000  0.910378  0.500000
  0.250001  0.410378  0.500000
  0.749999  0.410378  0.500000
