EA1     5.431  5.712  5.657 86.63 116.28 62.26 Sym.group:    1
1.0
    5.427108    -0.136165    -0.150555
    2.746297    -1.772007     4.684442
   -2.631118    -5.008043     0.053787
  La  Ga   H
   4   2  24
Direct
    0.315520     0.342477     0.886499 
    0.255330     0.392079     0.334049 
    0.778979     0.353729     0.343141 
    0.716656     0.868359     0.344504 
    0.079470     0.905345     0.962828 
    0.457949     0.808372     0.700279 
    0.882037     0.712062     0.794526 
    0.196035     0.063243     0.237034 
    0.827498     0.074169     0.141767 
    0.755376     0.100986     0.596390 
    0.937308     0.323946     0.877448 
    0.129841     0.794722     0.338503 
    0.048847     0.164830     0.769052 
    0.862243     0.807039     0.040070 
    0.772629     0.235013     0.981431 
    0.653974     0.243420     0.764369 
    0.332739     0.725179     0.327556 
    0.458352     0.725389     0.045671 
    0.068177     0.958749     0.537332 
    0.908019     0.455572     0.939867 
    0.610609     0.415815     0.645738 
    0.478549     0.956155     0.937826 
    0.607533     0.995413     0.640004 
    0.597726     0.485838     0.919457 
    0.563192     0.658382     0.480975 
    0.244218     0.167934     0.605220 
    0.769992     0.647707     0.077362 
    0.106983     0.747071     0.721880 
    0.221649     0.627947     0.583170 
    0.842023     0.551747     0.629739 
EA2     3.429  3.548 12.209 89.56 89.67 64.10 Sym.group:    1
1.0
    1.601017    -3.031792    -0.002270
    3.545994     0.120207    -0.006407
    0.117171    -0.027904    12.208263
  La  Ga   H
   4   2  24
Direct
    0.948656     0.155333     0.054840 
    0.096501     0.849020     0.555473 
    0.926363     0.246622     0.359200 
    0.110686     0.769111     0.861340 
    0.738368     0.468984     0.714786 
    0.308523     0.462529     0.197424 
    0.556157     0.934922     0.638998 
    0.902363     0.770509     0.276726 
    0.236319     0.600371     0.705271 
    0.577238     0.887101     0.140171 
    0.229196     0.221312     0.773221 
    0.428290     0.754062     0.293786 
    0.487737     0.071552     0.801675 
    0.788592     0.469361     0.202087 
    0.834435     0.978859     0.711487 
    0.594781     0.896173     0.303735 
    0.084545     0.356017     0.618837 
    0.163647     0.989542     0.207204 
    0.587490     0.889443     0.436342 
    0.591801     0.791246     0.970346 
    0.276343     0.593188     0.399407 
    0.438173     0.127191     0.938915 
    0.417032     0.215310     0.478534 
    0.765158     0.411049     0.891792 
    0.329903     0.528561     0.021638 
    0.918460     0.442875     0.511478 
    0.585937     0.777283     0.079681 
    0.655837     0.418043     0.515370 
    0.961434     0.638715     0.004918 
    0.450002     0.216044     0.602065 
EA3     7.113  3.802  4.907 89.96 91.56 89.94 Sym.group:    1
1.0
    7.105430     0.026721    -0.334604
   -0.008644     3.801786     0.031950
    0.097043    -0.037812     4.905691
  La  Ga   H
   4   2  24
Direct
    0.095384     0.645217     0.733787 
    0.914630     0.648231     0.233671 
    0.576348     0.653419     0.740211 
    0.434450     0.638207     0.226245 
    0.840053     0.148823     0.601296 
    0.171094     0.146178     0.370347 
    0.321745     0.409138     0.560698 
    0.691229     0.416068     0.402627 
    0.836398     0.444317     0.860521 
    0.170720     0.440499     0.107196 
    0.317385     0.863308     0.548860 
    0.567860     0.138784     0.391792 
    0.175999     0.148887     0.813894 
    0.816791     0.147299     0.149289 
    0.465391     0.143026     0.042620 
    0.594571     0.165111     0.047290 
    0.932326     0.147820     0.064562 
    0.069474     0.145701     0.922977 
    0.371186     0.070423     0.765468 
    0.691182     0.882523     0.399019 
    0.471366     0.156532     0.719658 
    0.460520     0.143610     0.439702 
    0.172857     0.850276     0.107723 
    0.838883     0.852547     0.859939 
    0.341699     0.142094     0.146362 
    0.649442     0.152078     0.771648 
    0.689636     0.395047     0.079294 
    0.325263     0.409442     0.890448 
    0.318347     0.876354     0.904747 
    0.686967     0.893931     0.082235 
EA4     3.743  6.106  6.193 74.75 78.09 77.32 Sym.group:    1
1.0
    3.670295     0.545103     0.489432
    0.393933     6.069760     0.539536
    0.331192     1.076261     6.089631
  La  Ga   H
   4   2  24
Direct
    0.734824     0.863307     0.817967 
    0.265830     0.138799     0.138873 
    0.975797     0.735707     0.238553 
    0.999395     0.284036     0.726341 
    0.371379     0.659416     0.613249 
    0.613634     0.320426     0.385405 
    0.909923     0.436717     0.183599 
    0.894878     0.652916     0.601916 
    0.073719     0.524556     0.915293 
    0.161694     0.272053     0.402354 
    0.420877     0.400846     0.815107 
    0.499001     0.189174     0.810354 
    0.482589     0.068342     0.552917 
    0.611899     0.546864     0.856371 
    0.533074     0.661415     0.136823 
    0.413153     0.811729     0.352465 
    0.630494     0.928621     0.483261 
    0.427347     0.478686     0.118107 
    0.809955     0.508669     0.945903 
    0.039821     0.060732     0.491068 
    0.227305     0.479479     0.075528 
    0.949618     0.950618     0.468287 
    0.266758     0.696891     0.916002 
    0.729390     0.079536     0.273617 
    0.725482     0.302009     0.047563 
    0.256445     0.928237     0.679565 
    0.231098     0.503338     0.460192 
    0.771940     0.506450     0.484981 
    0.179563     0.942341     0.917893 
    0.817066     0.062815     0.031092 
EA5     4.241  7.198  4.482 96.98 93.59 76.19 Sym.group:    1
1.0
    4.241023     0.008157    -0.034909
    1.704361     6.992746    -0.083858
   -0.242948    -0.448380     4.452727
  La  Ga   H
   4   2  24
Direct
    0.291200     0.127806     0.170283 
    0.706482     0.875725     0.825029 
    0.234738     0.405913     0.771078 
    0.763326     0.596949     0.224073 
    0.170097     0.842292     0.428395 
    0.829298     0.159312     0.567084 
    0.068308     0.679112     0.922588 
    0.804427     0.593024     0.676695 
    0.926508     0.323555     0.076310 
    0.191806     0.410225     0.320334 
    0.428188     0.566970     0.506750 
    0.279915     0.529762     0.231643 
    0.717373     0.465787     0.764446 
    0.567045     0.442768     0.491500 
    0.781841     0.152580     0.949950 
    0.810976     0.088366     0.170257 
    0.208144     0.852657     0.046128 
    0.186254     0.915347     0.824671 
    0.540666     0.889877     0.382267 
    0.752113     0.894525     0.312301 
    0.457230     0.111744     0.610751 
    0.246115     0.108549     0.684269 
    0.437888     0.672872     0.697678 
    0.246883     0.628970     0.128695 
    0.584254     0.326226     0.112790 
    0.944270     0.333438     0.409345 
    0.560613     0.327315     0.315979 
    0.753981     0.370334     0.874194 
    0.405888     0.681242     0.892184 
    0.052859     0.669636     0.586969 
EA6     3.633  3.844 10.858 98.70 91.03 62.23 Sym.group:    1
1.0
   -1.796476     3.128863    -0.430066
   -3.842099    -0.116471     0.067745
    1.761312     2.225001    10.481048
  La  Ga   H
   4   2  24
Direct
    0.750988     0.071692     0.665378 
    0.338950     0.900952     0.331837 
    0.175688     0.040237     0.003844 
    0.294826     0.495221     0.500493 
    0.658424     0.215052     0.205971 
    0.404642     0.753362     0.775873 
    0.248607     0.549141     0.090088 
    0.804233     0.864995     0.843039 
    0.906699     0.718010     0.238046 
    0.684022     0.395332     0.868208 
    0.227802     0.171966     0.183910 
    0.167537     0.263500     0.759597 
    0.243821     0.453642     0.878848 
    0.175118     0.775381     0.153680 
    0.020314     0.488283     0.724562 
    0.770264     0.567654     0.166161 
    0.922989     0.191736     0.839515 
    0.034185     0.539722     0.317731 
    0.779327     0.530432     0.600216 
    0.804105     0.677899     0.058793 
    0.943831     0.194263     0.490535 
    0.707889     0.982274     0.065534 
    0.263734     0.039756     0.591944 
    0.674693     0.530401     0.003792 
    0.816791     0.420607     0.397221 
    0.029563     0.547789     0.924502 
    0.811335     0.959333     0.408990 
    0.687126     0.007881     0.926147 
    0.647981     0.796400     0.498186 
    0.496591     0.389483     0.005372 
EA7     4.944  5.225  5.163 87.40 90.34 84.12 Sym.group:    1
1.0
    4.936842     0.255046    -0.051264
    0.267120     5.217462     0.098898
    0.015833     0.135849     5.160874
  La  Ga   H
   4   2  24
Direct
    0.514544     0.260650     0.971683 
    0.492341     0.775963     0.024983 
    0.741886     0.460538     0.433071 
    0.230128     0.553212     0.553722 
    0.996816     0.513481     0.001086 
    0.494015     0.999012     0.506336 
    0.900908     0.193261     0.167816 
    0.292783     0.517960     0.182901 
    0.569997     0.699469     0.669132 
    0.267620     0.165558     0.687338 
    0.106777     0.808505     0.849171 
    0.848080     0.321829     0.779598 
    0.408497     0.278942     0.344449 
    0.729794     0.857387     0.318677 
    0.074718     0.180687     0.453342 
    0.014881     0.883945     0.421555 
    0.822095     0.974160     0.853001 
    0.139005     0.068145     0.987582 
    0.912165     0.838909     0.551005 
    0.980395     0.134330     0.582373 
    0.162163     0.021953     0.144108 
    0.864068     0.958858     0.007084 
    0.130790     0.244684     0.829265 
    0.846667     0.708173     0.737076 
    0.808355     0.099941     0.268306 
    0.220440     0.903956     0.334456 
    0.900887     0.767253     0.185832 
    0.126777     0.290626     0.270509 
    0.173955     0.907184     0.728880 
    0.751006     0.116202     0.656463 
EA8     5.095  5.117  5.882 89.49 90.52 119.70 Sym.group:    1
1.0
    2.603255    -4.379632    -0.029420
    2.525160     4.449899     0.062515
   -0.038757    -0.000010     5.882203
  La  Ga   H
   4   2  24
Direct
    0.335125     0.669042     0.798973 
    0.677636     0.935884     0.300006 
    0.070175     0.742030     0.303693 
    0.261456     0.326197     0.309213 
    0.997205     0.001789     0.722901 
    0.664595     0.335983     0.002975 
    0.630522     0.626391     0.064493 
    0.378553     0.006463     0.063453 
    0.995559     0.372524     0.064255 
    0.174775     0.251037     0.957611 
    0.758600     0.925123     0.953940 
    0.088424     0.842882     0.953671 
    0.905010     0.288159     0.815271 
    0.722627     0.619449     0.814513 
    0.376929     0.097728     0.812951 
    0.685209     0.022449     0.641020 
    0.982761     0.673362     0.643715 
    0.326846     0.313152     0.650071 
    0.892831     0.401339     0.713456 
    0.606276     0.502192     0.709015 
    0.515403     0.113501     0.723142 
    0.331765     0.663758     0.114735 
    0.863397     0.337542     0.380106 
    0.667237     0.525841     0.371545 
    0.465823     0.124191     0.398076 
    0.050967     0.406952     0.548981 
    0.596636     0.650045     0.547452 
    0.352048     0.960191     0.550140 
    0.675199     0.345152     0.488165 
    0.659075     0.333331     0.628155 
EA9     5.240  5.032  5.704 90.89 97.34 118.40 Sym.group:    1
1.0
    5.230632     0.105787    -0.292560
   -2.488668     4.372982    -0.045487
   -0.406822    -0.274089     5.683129
  La  Ga   H
   4   2  24
Direct
    0.659035     0.364401     0.113383 
    0.331539     0.695023     0.390353 
    0.350297     0.632082     0.889997 
    0.655745     0.289911     0.615624 
    0.000084     0.002062     0.254410 
    0.003465     0.010160     0.737041 
    0.973909     0.648916     0.901232 
    0.208990     0.009297     0.494903 
    0.203502     0.173000     0.992142 
    0.961676     0.303875     0.381640 
    0.706580     0.027548     0.876755 
    0.696858     0.662522     0.381948 
    0.027383     0.679502     0.614360 
    0.302825     0.970450     0.129711 
    0.300871     0.334463     0.613677 
    0.039332     0.357950     0.093193 
    0.783160     0.973985     0.496775 
    0.798070     0.813844     0.004926 
    0.624803     0.952360     0.161278 
    0.736469     0.656586     0.844671 
    0.061036     0.710964     0.075358 
    0.373615     0.037235     0.847787 
    0.283075     0.356448     0.160524 
    0.946348     0.292882     0.926911 
    0.370320     0.318992     0.349713 
    0.058873     0.361441     0.593808 
    0.678536     0.066988     0.328789 
    0.639535     0.676045     0.652234 
    0.927177     0.649303     0.427824 
    0.293957     0.920634     0.677890 
EA10    4.777  5.005  6.463 95.87 73.35 65.41 Sym.group:    1
1.0
    2.524734     4.044689    -0.285986
   -2.759997     4.172769    -0.140423
    2.487055     1.049332     5.871844
  La  Ga   H
   4   2  24
Direct
    0.005948     0.998692     0.998867 
    0.995992     0.500065     0.502491 
    0.444243     0.264099     0.884254 
    0.559008     0.728685     0.116268 
    0.679637     0.141863     0.436472 
    0.313683     0.861381     0.561289 
    0.515061     0.159959     0.200067 
    0.177622     0.611416     0.192682 
    0.968382     0.400104     0.160654 
    0.499796     0.829713     0.791163 
    0.825413     0.378209     0.809530 
    0.039839     0.599080     0.840442 
    0.427055     0.535283     0.379403 
    0.736687     0.777508     0.343868 
    0.069322     0.103739     0.299500 
    0.562895     0.469522     0.618110 
    0.270251     0.221170     0.653007 
    0.931359     0.893381     0.703186 
    0.224378     0.611239     0.733217 
    0.670428     0.934173     0.617194 
    0.899177     0.181687     0.631548 
    0.778586     0.384682     0.268179 
    0.335146     0.065542     0.379803 
    0.098121     0.813839     0.358160 
    0.802873     0.806740     0.824983 
    0.565431     0.599225     0.797715 
    0.979446     0.372615     0.880666 
    0.198479     0.191808     0.179562 
    0.409684     0.411008     0.208798 
    0.023969     0.622975     0.104819 
EA11    3.716  3.718  9.968 100.05 96.15 91.14 Sym.group:    1
1.0
    3.710579    -0.028045    -0.198413
   -0.027377     3.701780     0.347896
   -0.575863    -2.652138     9.591767
  La  Ga   H
   4   2  24
Direct
    0.949344     0.953732     0.002880 
    0.114146     0.528791     0.503578 
    0.468281     0.724496     0.246475 
    0.505004     0.280142     0.750176 
    0.951674     0.237190     0.253670 
    0.003112     0.786591     0.748224 
    0.984799     0.694967     0.323549 
    0.946140     0.791289     0.183692 
    0.022619     0.492026     0.102921 
    0.957105     0.975758     0.400660 
    0.565927     0.240763     0.106700 
    0.641116     0.288824     0.374763 
    0.361430     0.241836     0.349299 
    0.327399     0.166474     0.163749 
    0.982587     0.332938     0.674054 
    0.034935     0.207225     0.838525 
    0.078872     0.501641     0.868996 
    0.949520     0.064393     0.598296 
    0.415321     0.916399     0.904314 
    0.398761     0.756297     0.684236 
    0.646030     0.630890     0.609477 
    0.618266     0.817968     0.824497 
    0.249923     0.508148     0.023529 
    0.299786     0.027801     0.458926 
    0.650441     0.881206     0.540014 
    0.721091     0.422461     0.956216 
    0.609786     0.295083     0.536036 
    0.583145     0.350661     0.032845 
    0.406122     0.662580     0.979480 
    0.626499     0.763492     0.454102 
EA12    4.653  4.677  6.920 89.71 90.34 119.68 Sym.group:    1
1.0
    2.298788     4.045385     0.021021
   -4.677260    -0.005780     0.002827
   -0.030895    -0.065156     6.919278
  La  Ga   H
   4   2  24
Direct
    0.666285     0.335990     0.377885 
    0.332638     0.663929     0.622774 
    0.000322     0.996371     0.000322 
    0.009638     0.008569     0.499585 
    0.669329     0.331575     0.885866 
    0.336573     0.663451     0.115145 
    0.762750     0.745959     0.754936 
    0.262525     0.021915     0.757474 
    0.980678     0.253006     0.765238 
    0.261289     0.979335     0.234320 
    0.012669     0.246590     0.242599 
    0.750339     0.758948     0.243152 
    0.841326     0.550813     0.638227 
    0.460234     0.295651     0.637973 
    0.700091     0.146217     0.633719 
    0.147356     0.700999     0.366817 
    0.291645     0.461672     0.360715 
    0.549031     0.850002     0.365224 
    0.802150     0.061604     0.234726 
    0.946553     0.754961     0.243289 
    0.245385     0.181005     0.238414 
    0.183971     0.246533     0.762779 
    0.755961     0.936083     0.756698 
    0.071998     0.814649     0.764129 
    0.513010     0.418706     0.114041 
    0.591698     0.091207     0.116937 
    0.918107     0.487838     0.116919 
    0.493744     0.911608     0.885170 
    0.093756     0.596521     0.884110 
    0.429202     0.514232     0.884318 
EA13    4.801  4.942  6.431 85.92 77.85 61.36 Sym.group:    1
1.0
   -2.412311     4.126664     0.445467
   -4.936530    -0.149320     0.182811
   -0.243644     0.742565     6.382907
  La  Ga   H
   4   2  24
Direct
    0.552536     0.807456     0.479847 
    0.681399     0.542398     0.001139 
    0.202761     0.496273     0.512775 
    0.362558     0.201892     0.983875 
    0.036350     0.856188     0.016879 
    0.882202     0.157704     0.504290 
    0.067895     0.272624     0.774889 
    0.555150     0.149017     0.644884 
    0.431227     0.536711     0.747746 
    0.727832     0.227003     0.787684 
    0.086603     0.571186     0.833040 
    0.279142     0.118744     0.703896 
    0.975918     0.567186     0.227930 
    0.320324     0.902978     0.209077 
    0.643696     0.419531     0.328595 
    0.314039     0.737173     0.270198 
    0.942242     0.418129     0.258655 
    0.689479     0.871423     0.161387 
    0.971382     0.157992     0.166538 
    0.934852     0.885237     0.336354 
    0.917400     0.138081     0.838428 
    0.106418     0.889226     0.665188 
    0.213103     0.154472     0.327290 
    0.645492     0.202899     0.232611 
    0.271028     0.558805     0.187753 
    0.830849     0.849319     0.801066 
    0.357181     0.861440     0.813807 
    0.806911     0.466901     0.671926 
    0.479382     0.177889     0.274210 
    0.709396     0.805105     0.742299 
EA14    4.731  5.307  5.346 91.17 79.22 91.82 Sym.group:    1
1.0
    4.703220    -0.068265     0.508552
   -0.082171     5.305933    -0.096185
    0.429312    -0.006187     5.328691
  La  Ga   H
   4   2  24
Direct
    0.344623     0.257214     0.806814 
    0.746106     0.694102     0.694469 
    0.723111     0.301683     0.185910 
    0.360714     0.746360     0.306065 
    0.997903     0.898502     0.042307 
    0.992112     0.105786     0.521752 
    0.427828     0.916020     0.648809 
    0.558775     0.024467     0.517578 
    0.085680     0.564580     0.008354 
    0.956952     0.420028     0.837700 
    0.629792     0.942139     0.030815 
    0.394057     0.072793     0.122845 
    0.966272     0.565006     0.345628 
    0.111088     0.451610     0.529526 
    0.378358     0.134417     0.420794 
    0.821153     0.666329     0.301495 
    0.733641     0.655572     0.077697 
    0.189924     0.374118     0.189131 
    0.805718     0.324031     0.801927 
    0.381122     0.857292     0.912880 
    0.219091     0.635145     0.691780 
    0.732609     0.325524     0.563945 
    0.321858     0.657784     0.920824 
    0.498847     0.470786     0.499959 
    0.486778     0.532106     0.002572 
    0.296276     0.377441     0.442328 
    0.751260     0.920866     0.351936 
    0.162121     0.201432     0.196157 
    0.157040     0.855219     0.697808 
    0.749353     0.079439     0.814007 
EA15    5.393  5.383  5.909 116.74 62.92 90.63 Sym.group:    1
1.0
    5.392961     0.060060     0.034416
   -0.120505     2.900537     4.533144
    2.746446    -5.225184     0.259324
  La  Ga   H
   4   2  24
Direct
    0.298316     0.702792     0.406513 
    0.047906     0.453630     0.910447 
    0.876988     0.125473     0.246597 
    0.622760     0.876477     0.752377 
    0.593875     0.409963     0.820030 
    0.337411     0.162951     0.326678 
    0.346830     0.286517     0.030160 
    0.621251     0.749452     0.035229 
    0.019757     0.398283     0.520669 
    0.467260     0.121584     0.524535 
    0.659183     0.386830     0.061354 
    0.294680     0.674662     0.047692 
    0.072106     0.087056     0.568753 
    0.369500     0.474300     0.564889 
    0.615067     0.225352     0.113714 
    0.266422     0.891492     0.119901 
    0.862157     0.133859     0.607254 
    0.536429     0.474411     0.603742 
    0.354169     0.098223     0.721950 
    0.918211     0.621151     0.722283 
    0.126140     0.399497     0.218467 
    0.662018     0.817905     0.212634 
    0.950372     0.791167     0.829648 
    0.219022     0.033488     0.829644 
    0.716373     0.800225     0.331562 
    0.953502     0.535982     0.337821 
    0.212927     0.791831     0.838508 
    0.948993     0.042182     0.833671 
    0.708815     0.536023     0.336974 
    0.961258     0.803731     0.336459 
EA16    5.475  5.428  5.277 62.85 89.22 71.51 Sym.group:    2
1.0
    5.473282    -0.012903    -0.123347
    1.729853     5.141458    -0.197707
    0.180579     2.657055     4.555390
  La  Ga   H
   4   2  24
Direct
    0.302284     0.816955     0.224533 
    0.502442     0.757034     0.758267 
    0.695800     0.179092     0.777257 
    0.497424     0.237070     0.245285 
    0.013092     0.753620     0.677807 
    0.985559     0.246600     0.321543 
    0.130838     0.977423     0.771985 
    0.678874     0.780706     0.115395 
    0.768245     0.388107     0.029783 
    0.161088     0.314865     0.016759 
    0.869477     0.018427     0.230035 
    0.318159     0.217411     0.887759 
    0.230401     0.604511     0.971578 
    0.839876     0.678840     0.984488 
    0.134902     0.504765     0.378307 
    0.862848     0.492016     0.626593 
    0.919643     0.846752     0.166975 
    0.078517     0.149899     0.834034 
    0.872255     0.481160     0.811570 
    0.009686     0.198595     0.957970 
    0.259824     0.175758     0.555997 
    0.663159     0.484465     0.345866 
    0.129927     0.515075     0.191510 
    0.988615     0.795775     0.044429 
    0.739521     0.818727     0.447570 
    0.334738     0.511278     0.655997 
    0.041086     0.637133     0.441486 
    0.956110     0.359210     0.560773 
    0.303447     0.309644     0.619063 
    0.695535     0.687815     0.380852 
EA17    5.722  5.316  5.386 71.08 65.11 64.04 Sym.group:    1
1.0
    3.178235     4.748700    -0.295937
   -2.679779     4.568834    -0.450447
    0.423867     2.735430     4.619823
  La  Ga   H
   4   2  24
Direct
    0.059296     0.089919     0.447458 
    0.739712     0.359982     0.904053 
    0.647712     0.820917     0.312272 
    0.296507     0.339339     0.856268 
    0.212689     0.844250     0.939016 
    0.259820     0.516907     0.325787 
    0.372485     0.936476     0.102072 
    0.659924     0.097544     0.537134 
    0.620088     0.796340     0.740697 
    0.981252     0.816109     0.350534 
    0.029117     0.507521     0.200722 
    0.351019     0.036410     0.645576 
    0.894118     0.502223     0.502178 
    0.107994     0.319172     0.643909 
    0.023788     0.130471     0.085986 
    0.749943     0.155789     0.301919 
    0.465006     0.637903     0.697676 
    0.924657     0.912241     0.906278 
    0.654067     0.745542     0.971139 
    0.649106     0.021458     0.918355 
    0.793645     0.742436     0.635549 
    0.985360     0.685618     0.700201 
    0.282299     0.673249     0.538768 
    0.705217     0.392711     0.324364 
    0.894051     0.441669     0.156194 
    0.634345     0.418610     0.541108 
    0.545189     0.580200     0.196891 
    0.681646     0.065327     0.701690 
    0.419220     0.198028     0.464772 
    0.873859     0.676518     0.900462 
EA18    2.785  6.971  7.091 90.86 92.49 99.61 Sym.group:    1
1.0
    2.776562     0.035480     0.207534
   -1.239085     6.856935    -0.213216
   -0.835346    -0.040615     7.041997
  La  Ga   H
   4   2  24
Direct
    0.438097     0.267679     0.693054 
    0.686751     0.780683     0.226921 
    0.592802     0.243915     0.237743 
    0.172560     0.746051     0.749470 
    0.557907     0.037265     0.950762 
    0.829481     0.524858     0.454885 
    0.019160     0.044379     0.299071 
    0.731145     0.808409     0.525439 
    0.052399     0.147645     0.447133 
    0.790142     0.951113     0.593124 
    0.835811     0.010196     0.704119 
    0.742673     0.126443     0.491506 
    0.273644     0.882260     0.470993 
    0.311465     0.980890     0.398873 
    0.066330     0.471967     0.657732 
    0.016177     0.136669     0.858461 
    0.202130     0.901634     0.082041 
    0.284624     0.693855     0.453455 
    0.211125     0.358645     0.429634 
    0.744486     0.823538     0.950124 
    0.983382     0.058583     0.119703 
    0.560712     0.554266     0.667610 
    0.365979     0.331128     0.984129 
    0.047890     0.460197     0.837705 
    0.017476     0.520600     0.146737 
    0.118225     0.668974     0.031243 
    0.030285     0.331368     0.980856 
    0.496444     0.517187     0.899190 
    0.291059     0.491118     0.196925 
    0.678886     0.610527     0.966159 
EA19    5.372  5.292  5.275 90.92 84.86 117.98 Sym.group:    1
1.0
    3.045239    -4.424475     0.094338
    2.439501     4.695188     0.087767
    0.221958    -0.309040     5.261030
  La  Ga   H
   4   2  24
Direct
    0.229572     0.543295     0.131023 
    0.842677     0.953630     0.218840 
    0.214354     0.072530     0.612594 
    0.872732     0.489266     0.759957 
    0.650104     0.904434     0.703005 
    0.433685     0.145179     0.123741 
    0.441860     0.392332     0.340946 
    0.553355     0.906069     0.008346 
    0.651103     0.340798     0.445696 
    0.514757     0.148389     0.816080 
    0.939150     0.170773     0.865336 
    0.858259     0.573636     0.167995 
    0.205530     0.442079     0.658290 
    0.840734     0.569625     0.352431 
    0.136863     0.690314     0.451770 
    0.989400     0.300920     0.462525 
    0.142905     0.847389     0.968285 
    0.867020     0.839324     0.868771 
    0.778023     0.293200     0.128241 
    0.417755     0.496565     0.723449 
    0.619326     0.547717     0.055925 
    0.186439     0.183783     0.967130 
    0.654097     0.182357     0.493790 
    0.264604     0.671675     0.524675 
    0.784298     0.709283     0.521215 
    0.312985     0.759572     0.769919 
    0.491102     0.598611     0.426872 
    0.144691     0.857415     0.278183 
    0.462034     0.927354     0.359779 
    0.485824     0.457067     0.844895 
EA20    5.386  3.590  7.242 82.36 72.38 86.45 Sym.group:    1
1.0
    5.272367     0.169552    -1.085449
    0.156106     3.580389     0.215076
    3.524510     0.432643     6.311450
  La  Ga   H
   4   2  24
Direct
    0.292151     0.286692     0.152040 
    0.754790     0.545442     0.863863 
    0.711978     0.872679     0.325219 
    0.367251     0.124938     0.652944 
    0.063933     0.606010     0.495225 
    0.048215     0.897995     0.988877 
    0.689081     0.349660     0.444580 
    0.380061     0.656953     0.533906 
    0.319979     0.973861     0.394027 
    0.785769     0.179820     0.558945 
    0.565460     0.074744     0.861796 
    0.501600     0.775700     0.123249 
    0.147518     0.641802     0.776992 
    0.680730     0.408698     0.166986 
    0.673155     0.560603     0.602956 
    0.375604     0.429986     0.384492 
    0.761421     0.961614     0.611773 
    0.082104     0.130669     0.445027 
    0.367343     0.836288     0.962759 
    0.707088     0.016239     0.030895 
    0.915290     0.459585     0.114995 
    0.128081     0.342816     0.911615 
    0.914590     0.371331     0.303147 
    0.467650     0.589497     0.736446 
    0.956673     0.103348     0.741510 
    0.379450     0.762839     0.249999 
    0.006974     0.922092     0.659042 
    0.553033     0.397056     0.297749 
    0.103178     0.778207     0.236284 
    0.382755     0.453270     0.856912 
EA21    5.181  5.193  5.355 92.26 92.58 64.82 Sym.group:    1
1.0
    2.736721     4.398470    -0.051264
   -2.823423     4.358292    -0.052364
   -0.026641    -0.204727     5.350734
  La  Ga   H
   4   2  24
Direct
    0.437948     0.391808     0.905788 
    0.953517     0.388747     0.055531 
    0.467818     0.881686     0.081454 
    0.955407     0.903692     0.860533 
    0.901446     0.264224     0.536079 
    0.041129     0.825297     0.332470 
    0.513493     0.716862     0.436060 
    0.934575     0.538749     0.411425 
    0.630831     0.983044     0.394389 
    0.302588     0.688535     0.623822 
    0.239237     0.205860     0.675539 
    0.599188     0.059561     0.657052 
    0.495259     0.951921     0.701350 
    0.510131     0.504818     0.565714 
    0.022423     0.518520     0.709605 
    0.142276     0.442516     0.387666 
    0.467715     0.107669     0.383817 
    0.532083     0.374080     0.284606 
    0.655812     0.523550     0.316549 
    0.796369     0.790544     0.527700 
    0.369803     0.876689     0.446317 
    0.573289     0.257338     0.560195 
    0.167280     0.592261     0.604089 
    0.309700     0.288725     0.565540 
    0.327362     0.885973     0.708451 
    0.637905     0.578155     0.729668 
    0.739207     0.690319     0.728969 
    0.350046     0.416348     0.286455 
    0.213178     0.146877     0.334318 
    0.735725     0.126379     0.185847 
EA22    7.496  4.767  3.679 90.02 89.99 89.38 Sym.group:   13
1.0
    7.496329     0.011396    -0.044988
    0.044371     4.766499     0.034770
    0.022470    -0.028169     3.678736
  La  Ga   H
   4   2  24
Direct
    0.677330     0.998454     0.170225 
    0.322153     0.499295     0.170543 
    0.678187     0.498441     0.829590 
    0.320800     0.999188     0.831495 
    0.999581     0.248920     0.500052 
    0.999746     0.748596     0.501009 
    0.574115     0.375727     0.344779 
    0.425343     0.121790     0.346501 
    0.571949     0.124611     0.655891 
    0.426920     0.372279     0.655670 
    0.426034     0.622425     0.655374 
    0.572872     0.875577     0.655325 
    0.426361     0.873395     0.345899 
    0.573130     0.624880     0.344458 
    0.913237     0.902808     0.935160 
    0.086711     0.596243     0.935491 
    0.913013     0.590162     0.067326 
    0.086109     0.909614     0.071069 
    0.085254     0.096659     0.065930 
    0.914467     0.402761     0.062981 
    0.088208     0.407149     0.930114 
    0.911328     0.091065     0.930526 
    0.224596     0.611048     0.654390 
    0.775364     0.885708     0.654033 
    0.222990     0.887469     0.347308 
    0.776313     0.609657     0.345260 
    0.776569     0.385210     0.345511 
    0.223295     0.113890     0.348197 
    0.775005     0.108509     0.654452 
    0.224777     0.389525     0.654864 
EA23    5.581  5.772  4.106 90.15 90.16 87.39 Sym.group:    1
1.0
    5.579930     0.105063    -0.037729
    0.154115     5.769597     0.007120
    0.016825    -0.016325     4.105439
  La  Ga   H
   4   2  24
Direct
    0.698027     0.202268     0.328896 
    0.314590     0.827302     0.339178 
    0.820368     0.689905     0.337119 
    0.193850     0.330996     0.344551 
    0.997685     0.989146     0.796565 
    0.505998     0.504403     0.799090 
    0.776191     0.942158     0.037374 
    0.207545     0.074511     0.043869 
    0.084176     0.749103     0.003950 
    0.947789     0.247335     0.010856 
    0.750666     0.436787     0.997712 
    0.269323     0.585569     0.023313 
    0.433381     0.269785     0.001096 
    0.562628     0.730037     0.035236 
    0.883144     0.418992     0.642620 
    0.127155     0.618699     0.642851 
    0.654191     0.940028     0.657158 
    0.433273     0.126919     0.650219 
    0.305115     0.077003     0.714765 
    0.562872     0.953821     0.020349 
    0.919317     0.283869     0.726733 
    0.988927     0.492706     0.013572 
    0.140256     0.454677     0.832005 
    0.909348     0.624915     0.848023 
    0.565485     0.824232     0.700089 
    0.449326     0.065628     0.018977 
    0.327862     0.830845     0.839106 
    0.673360     0.175830     0.825460 
    0.199612     0.307875     0.844788 
    0.782622     0.716928     0.841690 
EA24    3.916  4.012  8.350 90.03 89.92 89.98 Sym.group:    1
1.0
    3.915618     0.025302    -0.054643
   -0.024574     4.012087     0.011392
    0.128260    -0.027791     8.349135
  La  Ga   H
   4   2  24
Direct
    0.570164     0.756377     0.715962 
    0.920534     0.754703     0.283162 
    0.420379     0.242201     0.283240 
    0.069710     0.243270     0.715014 
    0.240734     0.863127     0.998799 
    0.740984     0.144822     0.998646 
    0.066983     0.743573     0.660796 
    0.427579     0.742484     0.336714 
    0.926933     0.254123     0.335821 
    0.565553     0.256531     0.658745 
    0.547660     0.275034     0.830962 
    0.947110     0.273061     0.164567 
    0.446180     0.725681     0.164517 
    0.047993     0.723788     0.832480 
    0.828373     0.177040     0.466032 
    0.659735     0.146720     0.522611 
    0.161227     0.848947     0.524204 
    0.329917     0.824766     0.467491 
    0.256727     0.199744     0.501307 
    0.764420     0.800386     0.502725 
    0.065260     0.404241     0.934542 
    0.432215     0.417632     0.065816 
    0.930710     0.590688     0.063652 
    0.558706     0.598007     0.935522 
    0.422496     0.440395     0.523703 
    0.081239     0.441856     0.476285 
    0.579209     0.555646     0.475149 
    0.919828     0.561606     0.522832 
    0.246488     0.353694     0.004732 
    0.746542     0.652028     0.999828 
EA25    6.199  6.213  4.053 86.39 92.26 119.74 Sym.group:    1
1.0
   -3.134806    -5.345421    -0.168120
    6.211113    -0.072183     0.139687
    0.163598    -0.037642     4.049666
  La  Ga   H
   4   2  24
Direct
    0.066888     0.806292     0.960637 
    0.194441     0.263905     0.027646 
    0.732809     0.930941     0.010549 
    0.663573     0.330794     0.006686 
    0.340673     0.677093     0.736866 
    0.319997     0.657937     0.265909 
    0.179464     0.324989     0.521780 
    0.688053     0.860835     0.507475 
    0.134163     0.948818     0.451017 
    0.044418     0.787884     0.465414 
    0.085207     0.140737     0.540201 
    0.860124     0.950772     0.512860 
    0.489154     0.355822     0.407297 
    0.651113     0.094217     0.383535 
    0.882128     0.546643     0.376009 
    0.866457     0.512278     0.606515 
    0.430708     0.314575     0.621168 
    0.672579     0.148222     0.610143 
    0.896855     0.256700     0.712812 
    0.735128     0.652194     0.701641 
    0.342019     0.114499     0.716180 
    0.342555     0.076827     0.304999 
    0.902671     0.238947     0.299419 
    0.762576     0.654416     0.278181 
    0.006379     0.449435     0.257104 
    0.550140     0.556644     0.270433 
    0.449024     0.984707     0.274339 
    0.443942     0.997645     0.731566 
    0.006273     0.457314     0.737021 
    0.546854     0.563365     0.740755 
EA26    5.379  5.382  6.033 116.42 63.69 90.02 Sym.group:    9
1.0
    5.378021     0.027514    -0.069536
   -0.028872     5.381331     0.044685
    2.748360    -2.708194     4.638057
  La  Ga   H
   4   2  24
Direct
    0.372987     0.606906     0.734675 
    0.891558     0.125621     0.735282 
    0.872286     0.625930     0.736298 
    0.392739     0.105885     0.733063 
    0.324463     0.671855     0.346015 
    0.827261     0.173212     0.344562 
    0.810234     0.543398     0.086783 
    0.108040     0.541068     0.085195 
    0.453226     0.200559     0.089884 
    0.455022     0.893013     0.087684 
    0.308358     0.044506     0.086069 
    0.601338     0.042523     0.083982 
    0.959570     0.392487     0.085045 
    0.957938     0.696773     0.091087 
    0.286376     0.515283     0.049842 
    0.665237     0.534948     0.055776 
    0.465244     0.715637     0.053123 
    0.484360     0.339132     0.048463 
    0.777509     0.034428     0.055167 
    0.164996     0.017289     0.052001 
    0.966636     0.836676     0.051922 
    0.983983     0.215012     0.051492 
    0.305789     0.018967     0.406291 
    0.284511     0.385228     0.406505 
    0.611570     0.690693     0.406376 
    0.977931     0.712188     0.406682 
    0.807395     0.887247     0.406675 
    0.785001     0.520481     0.406756 
    0.112216     0.213428     0.407555 
    0.479934     0.191653     0.406066 
EA27    3.899  3.689  9.273 93.01 93.40 89.97 Sym.group:    1
1.0
    3.897626     0.001456    -0.100438
   -0.002127     3.687175    -0.107018
   -0.311376    -0.217970     9.264884
  La  Ga   H
   4   2  24
Direct
    0.983011     0.955121     0.686869 
    0.512926     0.544669     0.187334 
    0.011111     0.054286     0.968289 
    0.466392     0.430613     0.462929 
    0.965076     0.930501     0.377790 
    0.500374     0.536647     0.876430 
    0.139934     0.426075     0.801968 
    0.886387     0.542102     0.836560 
    0.366132     0.913777     0.351516 
    0.629929     0.089214     0.293057 
    0.635114     0.942686     0.512924 
    0.341356     0.940010     0.539229 
    0.515212     0.219681     0.991079 
    0.514554     0.866898     0.998194 
    0.856043     0.562080     0.031268 
    0.169970     0.556124     0.013479 
    0.976989     0.627328     0.499807 
    0.975660     0.268126     0.497903 
    0.007130     0.364714     0.201555 
    0.013797     0.693587     0.206473 
    0.185053     0.452254     0.644429 
    0.825357     0.458486     0.643089 
    0.485865     0.840578     0.731060 
    0.481321     0.157387     0.706398 
    0.332269     0.025553     0.157329 
    0.678623     0.038994     0.130297 
    0.869768     0.908199     0.163697 
    0.140570     0.156938     0.200336 
    0.633033     0.357113     0.678873 
    0.388827     0.638078     0.667985 
EA28    3.715  9.430  3.797 86.37 89.07 99.71 Sym.group:    1
1.0
    3.715060     0.013321    -0.053679
   -1.623627     9.288850    -0.024907
    0.115131     0.274373     3.784896
  La  Ga   H
   4   2  24
Direct
    0.373264     0.411885     0.918950 
    0.778535     0.606946     0.343861 
    0.234803     0.069647     0.461491 
    0.645883     0.892329     0.159293 
    0.816807     0.288869     0.473701 
    0.268192     0.700962     0.773641 
    0.186692     0.265694     0.300680 
    0.089318     0.794382     0.049325 
    0.527711     0.234556     0.143216 
    0.757283     0.793765     0.677168 
    0.175827     0.956761     0.957468 
    0.982182     0.119308     0.992347 
    0.941696     0.539318     0.854879 
    0.909893     0.451800     0.672614 
    0.903485     0.878619     0.677029 
    0.519524     0.104482     0.952047 
    0.325528     0.707605     0.329760 
    0.389204     0.237486     0.698843 
    0.688510     0.092299     0.783311 
    0.260788     0.580560     0.167811 
    0.236538     0.525730     0.465890 
    0.893914     0.426778     0.148709 
    0.403604     0.884281     0.672049 
    0.764322     0.114041     0.260588 
    0.186336     0.175753     0.931748 
    0.125702     0.841728     0.377581 
    0.829202     0.284844     0.917674 
    0.666714     0.647784     0.847349 
    0.709339     0.979961     0.649781 
    0.472667     0.402016     0.416269 
EA29    5.736  4.890  4.755 90.01 82.68 90.01 Sym.group:    4
1.0
    5.735472    -0.022478     0.105582
    0.018369     4.890010    -0.009322
    0.519057     0.006097     4.726445
  La  Ga   H
   4   2  24
Direct
    0.445918     0.567963     0.185486 
    0.553589     0.067795     0.809284 
    0.224480     0.062172     0.395476 
    0.775210     0.562174     0.599105 
    0.976482     0.927242     0.970169 
    0.023350     0.427099     0.024305 
    0.737041     0.866780     0.299239 
    0.262829     0.366472     0.695569 
    0.920747     0.849519     0.344630 
    0.078727     0.349393     0.649799 
    0.718072     0.751686     0.978723 
    0.281544     0.251485     0.015946 
    0.404166     0.399489     0.613860 
    0.595526     0.899755     0.380542 
    0.901595     0.941468     0.630881 
    0.098135     0.441308     0.363964 
    0.858221     0.239533     0.824827 
    0.141080     0.739374     0.169906 
    0.769585     0.471118     0.172280 
    0.230250     0.970010     0.821613 
    0.603435     0.186113     0.214408 
    0.396941     0.685464     0.780306 
    0.738333     0.126225     0.124327 
    0.261494     0.626085     0.870227 
    0.111281     0.689114     0.676749 
    0.888439     0.189372     0.318037 
    0.857481     0.164939     0.499164 
    0.142034     0.664989     0.495545 
    0.565599     0.259847     0.437222 
    0.433824     0.759900     0.557545 
EA30    5.007  4.913  5.516 85.95 85.15 79.55 Sym.group:    1
1.0
    4.987336     0.422461     0.135114
    0.477248     4.888765     0.106278
    0.298172     0.242444     5.502760
  La  Ga   H
   4   2  24
Direct
    0.459643     0.986715     0.646211 
    0.120780     0.549336     0.701620 
    0.915549     0.016076     0.109201 
    0.445794     0.499792     0.089909 
    0.954665     0.074607     0.568706 
    0.657024     0.467282     0.545644 
    0.840065     0.396849     0.922030 
    0.030789     0.593850     0.051609 
    0.559984     0.900479     0.003865 
    0.426005     0.041556     0.018553 
    0.230241     0.832983     0.910005 
    0.655644     0.217763     0.838231 
    0.258011     0.201106     0.936799 
    0.792172     0.800989     0.840101 
    0.404025     0.688600     0.420511 
    0.631224     0.199199     0.361752 
    0.098508     0.313505     0.204142 
    0.830002     0.781105     0.475465 
    0.830487     0.579133     0.168188 
    0.131732     0.476832     0.351999 
    0.698633     0.727080     0.217879 
    0.476682     0.088592     0.273947 
    0.547375     0.877466     0.289093 
    0.250410     0.171299     0.240649 
    0.869485     0.387670     0.273617 
    0.068807     0.648797     0.324174 
    0.075967     0.156471     0.802768 
    0.705466     0.620292     0.804889 
    0.213226     0.892456     0.370006 
    0.338287     0.335183     0.432086 
EA31    5.001  5.007  6.511 89.91 89.81 60.06 Sym.group:    1
1.0
    2.491916    -4.335698     0.007477
    5.007105    -0.004851    -0.024449
    0.042019     0.010245     6.510827
  La  Ga   H
   4   2  24
Direct
    0.500525     0.001571     0.001186 
    0.500326     0.501758     0.997806 
    0.000527     0.501556     0.003134 
    0.002051     0.000091     0.500315 
    0.002301     0.000449     0.842222 
    0.998154     0.003317     0.158498 
    0.462791     0.772269     0.555098 
    0.767550     0.459508     0.561859 
    0.778217     0.763129     0.562131 
    0.233445     0.229799     0.440084 
    0.541101     0.235935     0.443907 
    0.227803     0.540689     0.441198 
    0.774523     0.766882     0.440490 
    0.461609     0.772617     0.433083 
    0.768982     0.459201     0.439459 
    0.229802     0.542192     0.563619 
    0.233611     0.228940     0.561828 
    0.541508     0.234627     0.565839 
    0.596944     0.998724     0.697747 
    0.407654     0.600743     0.695912 
    0.999503     0.404111     0.699619 
    0.599744     0.001453     0.304061 
    0.403423     0.592583     0.301743 
    0.995654     0.409063     0.305306 
    0.415616     0.994928     0.695843 
    0.591889     0.416598     0.694974 
    0.003053     0.585608     0.697591 
    0.412797     0.006316     0.305829 
    0.586202     0.410340     0.303435 
    0.008048     0.586560     0.306531 
EA32    5.233  4.998  5.187 90.27 84.82 79.72 Sym.group:    1
1.0
    5.205371     0.495444     0.214485
    0.423102     4.979922    -0.012834
    0.260121    -0.032845     5.180056
  La  Ga   H
   4   2  24
Direct
    0.056213     0.052097     0.584319 
    0.439935     0.447637     0.915970 
    0.564976     0.933833     0.025347 
    0.938914     0.563744     0.468877 
    0.035705     0.048167     0.076098 
    0.466216     0.458306     0.423780 
    0.103132     0.365312     0.801395 
    0.758981     0.376368     0.180952 
    0.248345     0.653821     0.225092 
    0.923878     0.775034     0.822216 
    0.395437     0.135665     0.694927 
    0.737882     0.125495     0.318952 
    0.269355     0.873116     0.283351 
    0.577808     0.721199     0.673113 
    0.805236     0.206077     0.891120 
    0.169977     0.287386     0.162752 
    0.899173     0.780231     0.157408 
    0.247206     0.833292     0.865578 
    0.694588     0.296389     0.608558 
    0.332134     0.217828     0.340295 
    0.604689     0.729422     0.344704 
    0.249424     0.665944     0.636842 
    0.793073     0.570148     0.863795 
    0.082956     0.568843     0.084590 
    0.796330     0.516157     0.076269 
    0.054694     0.529617     0.904434 
    0.706325     0.927144     0.632520 
    0.414422     0.935884     0.411087 
    0.698588     0.986809     0.419351 
    0.441998     0.967211     0.609602 
EA33    5.930  6.050  3.805 86.20 94.52 102.43 Sym.group:    1
1.0
    5.885761    -0.695405    -0.206991
   -0.594338     6.016904     0.201830
   -0.155232     0.111069     3.800438
  La  Ga   H
   4   2  24
Direct
    0.285409     0.728898     0.510271 
    0.769590     0.756066     0.521285 
    0.224097     0.239618     0.522135 
    0.715805     0.279158     0.472666 
    0.008898     0.474934     0.004263 
    0.506694     0.009912     0.995948 
    0.956243     0.181706     0.892711 
    0.437744     0.274273     0.056481 
    0.555308     0.727544     0.007314 
    0.058607     0.765767     0.897295 
    0.729053     0.523403     0.988238 
    0.162703     0.025021     0.089134 
    0.814775     0.937482     0.028827 
    0.285341     0.474852     0.962463 
    0.022234     0.470473     0.598931 
    0.412589     0.043424     0.381265 
    0.267254     0.805641     0.999953 
    0.869820     0.815331     0.028846 
    0.168312     0.176246     0.021590 
    0.755800     0.215580     0.986819 
    0.565313     0.467234     0.790345 
    0.072721     0.921875     0.276663 
    0.906359     0.072452     0.286624 
    0.429165     0.495578     0.805436 
    0.917616     0.063791     0.739613 
    0.474721     0.446137     0.240348 
    0.510516     0.590379     0.168377 
    0.096165     0.932216     0.734635 
    0.965669     0.574124     0.352547 
    0.579864     0.961961     0.611073 
EA34    6.691  3.755  5.379 88.33 96.34 101.31 Sym.group:    1
1.0
    6.649288    -0.626688    -0.403463
   -0.385688     3.735046     0.057067
   -0.267098     0.047565     5.372266
  La  Ga   H
   4   2  24
Direct
    0.541722     0.046846     0.484760 
    0.873924     0.622324     0.520048 
    0.150985     0.922783     0.905998 
    0.898255     0.309108     0.043763 
    0.366228     0.503962     0.143110 
    0.161565     0.223286     0.445885 
    0.695641     0.349033     0.758710 
    0.709427     0.882355     0.200764 
    0.392895     0.687270     0.835244 
    0.449135     0.070802     0.088466 
    0.281815     0.886366     0.267236 
    0.374462     0.271563     0.734340 
    0.596451     0.012730     0.119040 
    0.634250     0.037348     0.861226 
    0.825586     0.780001     0.147898 
    0.896490     0.118751     0.677394 
    0.022652     0.903569     0.242162 
    0.311890     0.694398     0.666227 
    0.130830     0.421473     0.759427 
    0.116183     0.606523     0.303251 
    0.824828     0.786095     0.867962 
    0.692260     0.364095     0.246354 
    0.443347     0.212582     0.858493 
    0.565434     0.834886     0.848621 
    0.642848     0.562847     0.912744 
    0.616448     0.473625     0.041713 
    0.585735     0.584157     0.320906 
    0.564068     0.558139     0.640053 
    0.215050     0.801023     0.548033 
    0.403537     0.503296     0.513863 
EA35    4.413  4.404  4.308 109.74 109.84 106.02 Sym.group:    8
1.0
    1.601160    -2.011428    -3.586613
    1.661635     4.078527    -0.049776
    1.317004    -2.064132     3.544004
  La  Ga   H
   2   1  12
Direct
    0.501784     0.002303     0.501945 
    0.002565     0.500310     0.500963 
    0.494504     0.493924     0.003746 
    0.996722     0.505167     0.002066 
    0.988721     0.986954     0.482865 
    0.502375     0.500856     0.501173 
    0.502352     0.005633     0.003364 
    0.236024     0.976784     0.992172 
    0.747193     0.747463     0.747250 
    0.012960     0.013211     0.259392 
    0.983388     0.241655     0.992657 
    0.010804     0.749489     0.006626 
    0.003773     0.004144     0.736507 
    0.257083     0.258326     0.254028 
    0.744333     0.004333     0.006692 
EA36    4.182  4.070  4.158 78.78 76.46 78.64 Sym.group:    1
1.0
    4.164311     0.270742     0.275654
    0.529187     4.030195     0.211740
    0.674404     0.514943     4.070502
  La  Ga   H
   2   1  12
Direct
    0.194036     0.181034     0.194427 
    0.808688     0.827838     0.811810 
    0.494206     0.506155     0.508678 
    0.498961     0.896851     0.482351 
    0.520992     0.458696     0.899348 
    0.889754     0.466367     0.511087 
    0.512477     0.113258     0.516174 
    0.493128     0.540791     0.112660 
    0.104437     0.538752     0.495120 
    0.878697     0.296879     0.875428 
    0.858351     0.852126     0.279699 
    0.279047     0.846112     0.855958 
    0.128759     0.711129     0.129160 
    0.152018     0.149682     0.724764 
    0.726085     0.153818     0.153626 
EA37    4.381  4.394  4.411 112.38 76.82 68.36 Sym.group:    1
1.0
    4.380812     0.009908    -0.050826
    1.611065     4.088011    -0.056854
    1.053928    -2.169378     3.693579
  La  Ga   H
   2   1  12
Direct
    0.237852     0.502896     0.254338 
    0.741045     0.506885     0.761935 
    0.493900     0.003824     0.503837 
    0.221852     0.006406     0.250073 
    0.753111     0.004001     0.774216 
    0.755057     0.473482     0.243004 
    0.238697     0.516301     0.758831 
    0.972850     0.993375     0.772880 
    0.223547     0.992434     0.025779 
    0.045226     0.755384     0.957542 
    0.784418     0.248406     0.213295 
    0.100070     0.240309     0.894877 
    0.350937     0.748319     0.647979 
    0.643146     0.009255     0.107680 
    0.893186     0.005093     0.357447 
EA38    4.523  4.520  4.529 90.62 119.64 119.58 Sym.group:   22
1.0
    0.032936    -2.665663    -3.653401
    2.261819     3.912824    -0.072559
    2.234593    -1.278851     3.725804
  La  Ga   H
   2   1  12
Direct
    0.507762     0.757612     0.250795 
    0.501863     0.253944     0.748377 
    0.004892     0.005197     0.000391 
    0.975635     0.227348     0.613753 
    0.974928     0.748468     0.357994 
    0.036956     0.393103     0.778119 
    0.034487     0.644609     0.252393 
    0.630515     0.396107     0.250192 
    0.631205     0.241993     0.377023 
    0.375685     0.751458     0.604358 
    0.378845     0.631977     0.765367 
    0.146173     0.760724     0.766940 
    0.140568     0.386108     0.367728 
    0.864100     0.241203     0.243988 
    0.870261     0.635839     0.620043 
EA39    4.525  4.582  4.553 119.10 119.77 90.30 Sym.group:    5
1.0
    2.200965    -1.294056    -3.735641
    2.363757     3.924520     0.061799
    0.042715    -2.669144     3.688465
  La  Ga   H
   2   1  12
Direct
    0.245849     0.751579     0.501206 
    0.742302     0.242080     0.495636 
    0.995049     0.997569     0.998622 
    0.242390     0.244127     0.740981 
    0.749131     0.753693     0.247470 
    0.498594     0.501985     0.742347 
    0.501097     0.502775     0.263276 
    0.501964     0.240775     0.751196 
    0.754504     0.494341     0.256692 
    0.238687     0.496555     0.743459 
    0.497857     0.749364     0.254485 
    0.500482     0.238995     0.997726 
    0.761546     0.500783     0.999013 
    0.503362     0.757759     0.999025 
    0.230809     0.498425     0.997714 
EA40    3.745  3.735  5.148 100.26 75.25 107.54 Sym.group:    1
1.0
    2.204653    -2.990493     0.472991
    2.214958     2.986685    -0.352133
    0.195210    -0.690849     5.097350
  La  Ga   H
   2   1  12
Direct
    0.922979     0.110807     0.871212 
    0.382248     0.690741     0.592872 
    0.060928     0.049083     0.321657 
    0.734880     0.317486     0.578852 
    0.902689     0.643500     0.482347 
    0.439320     0.180307     0.476345 
    0.347563     0.728888     0.220265 
    0.171813     0.467851     0.207416 
    0.620142     0.897787     0.222601 
    0.018279     0.668982     0.998538 
    0.444096     0.571643     0.965789 
    0.592373     0.461436     0.851180 
    0.636652     0.345763     0.249049 
    0.753703     0.528115     0.156284 
    0.362620     0.037634     0.000888 
EA41    4.249  3.767  4.644 70.02 107.39 85.26 Sym.group:    1
1.0
    4.232126    -0.170950     0.339892
    0.457790     3.738309     0.072653
   -1.644507     1.723232     3.986966
  La  Ga   H
   2   1  12
Direct
    0.158951     0.857442     0.975986 
    0.983468     0.567252     0.503317 
    0.457362     0.053010     0.509560 
    0.591555     0.438861     0.216597 
    0.434502     0.542279     0.819170 
    0.638470     0.563519     0.051743 
    0.305127     0.324614     0.020662 
    0.684313     0.262155     0.772523 
    0.987099     0.183939     0.226149 
    0.656724     0.014384     0.008416 
    0.916011     0.351029     0.009143 
    0.752302     0.671536     0.797011 
    0.599067     0.013598     0.174551 
    0.855352     0.093745     0.471437 
    0.467491     0.589128     0.458218 
EA42    2.898  3.103  8.165 89.90 89.98 62.85 Sym.group:    1
1.0
    1.417730    -2.526942     0.030095
    3.100834     0.116116     0.011618
   -0.019548     0.083506     8.164331
  La  Ga   H
   2   1  12
Direct
    0.000703     0.005927     0.833849 
    0.002972     0.001008     0.160098 
    0.999292     0.002835     0.494874 
    0.991290     0.505479     0.545384 
    0.495996     0.005171     0.623476 
    0.498816     0.505137     0.656731 
    0.491561     0.497061     0.470082 
    0.001512     0.497923     0.338073 
    0.499446     0.998772     0.366498 
    0.674666     0.654935     0.997221 
    0.328964     0.351742     0.997671 
    0.654815     0.596875     0.299141 
    0.261399     0.402642     0.698456 
    0.726188     0.619996     0.704298 
    0.349792     0.398373     0.294692 
EA43    4.305  3.912  4.044 80.33 91.98 77.17 Sym.group:    1
1.0
    4.303476     0.096606    -0.074909
    0.786604     3.827798     0.189973
   -0.081716     0.511779     4.010758
  La  Ga   H
   2   1  12
Direct
    0.502184     0.620594     0.962274 
    0.023960     0.641283     0.452675 
    0.082151     0.186668     0.010815 
    0.974309     0.759558     0.931434 
    0.675869     0.042378     0.055901 
    0.443071     0.280880     0.397576 
    0.782297     0.276135     0.706082 
    0.584277     0.420311     0.490895 
    0.291889     0.063168     0.439601 
    0.839163     0.228180     0.344088 
    0.134596     0.066647     0.598623 
    0.591793     0.039324     0.244680 
    0.421925     0.184916     0.774569 
    0.689307     0.968894     0.652176 
    0.493314     0.767266     0.434606 
EA44    3.759  4.938  3.746 100.23 101.54 74.86 Sym.group:    1
1.0
    3.754074    -0.058292     0.187298
    1.364597     4.745212     0.009153
   -0.936369    -0.429539     3.601181
  La  Ga   H
   2   1  12
Direct
    0.859907     0.242662     0.164390 
    0.231283     0.658786     0.836834 
    0.552850     0.944015     0.497423 
    0.773776     0.660999     0.056366 
    0.686724     0.851275     0.911859 
    0.526557     0.596096     0.395099 
    0.784924     0.455820     0.689046 
    0.306836     0.456703     0.312118 
    0.543728     0.294142     0.595000 
    0.408261     0.039134     0.089988 
    0.309784     0.269257     0.978957 
    0.999824     0.630646     0.288788 
    0.129824     0.216980     0.709798 
    0.982367     0.061255     0.650949 
    0.108693     0.850732     0.356659 
EA45    3.614  3.316  6.205 89.13 90.45 67.91 Sym.group:    1
1.0
    2.088789     2.948754    -0.006197
   -1.786424     2.793909     0.015798
   -0.091160     0.018448     6.204020
  La  Ga   H
   2   1  12
Direct
    0.332521     0.321722     0.892772 
    0.358522     0.316984     0.347894 
    0.966157     0.999416     0.639529 
    0.569571     0.881074     0.128563 
    0.575548     0.599700     0.128940 
    0.928440     0.589954     0.132851 
    0.042925     0.763766     0.111640 
    0.090273     0.066792     0.117931 
    0.762781     0.153492     0.112396 
    0.503063     0.978182     0.622716 
    0.504365     0.541613     0.614659 
    0.969813     0.504227     0.591894 
    0.987965     0.962312     0.375139 
    0.703128     0.664499     0.908611 
    0.704134     0.649968     0.781099 
EA46    4.007  3.998  5.022 89.23 90.29 119.92 Sym.group:    1
1.0
    2.016355    -3.462333    -0.011772
    1.991054     3.467401     0.003831
    0.052003     0.042779     5.021908
  La  Ga   H
   2   1  12
Direct
    0.344100     0.673223     0.998932 
    0.663579     0.330559     0.506575 
    0.327490     0.662587     0.495360 
    0.762995     0.884185     0.314781 
    0.117064     0.879860     0.304047 
    0.112484     0.235013     0.313024 
    0.119738     0.240442     0.700633 
    0.759875     0.875616     0.686147 
    0.112879     0.873101     0.689591 
    0.832511     0.189152     0.906812 
    0.825557     0.636197     0.905861 
    0.361334     0.183897     0.901493 
    0.368817     0.183784     0.105527 
    0.824727     0.191881     0.101540 
    0.826469     0.634831     0.099717 
EA47    3.521  3.418  6.257 93.72 91.22 117.09 Sym.group:    1
1.0
    3.519994     0.098226    -0.005965
   -1.640663     2.996983    -0.088658
   -0.113252    -0.340650     6.246196
  La  Ga   H
   2   1  12
Direct
    0.034337     0.016663     0.787175 
    0.976873     0.919279     0.211981 
    0.646390     0.302834     0.500442 
    0.665863     0.809406     0.495993 
    0.172634     0.783766     0.498305 
    0.162036     0.321838     0.503483 
    0.438032     0.811309     0.943811 
    0.001065     0.464787     0.999646 
    0.378188     0.668363     0.724744 
    0.408247     0.444233     0.061093 
    0.537691     0.043864     0.023429 
    0.342181     0.607262     0.271400 
    0.673733     0.342461     0.762768 
    0.629655     0.265282     0.240850 
    0.594893     0.483174     0.955423 
EA48    3.662  4.416  4.492 99.77 78.60 112.99 Sym.group:    1
1.0
    3.658001     0.122261     0.124589
   -1.855353     4.004806    -0.143830
    0.749853    -0.334261     4.416366
  La  Ga   H
   2   1  12
Direct
    0.818188     0.502553     0.745795 
    0.260451     0.050173     0.106461 
    0.508766     0.671475     0.348845 
    0.192465     0.289121     0.782764 
    0.970076     0.625368     0.306759 
    0.260026     0.323720     0.545901 
    0.899187     0.997480     0.541120 
    0.262602     0.520883     0.005505 
    0.698209     0.880064     0.027413 
    0.778740     0.195255     0.318584 
    0.428797     0.735659     0.748725 
    0.474115     0.097209     0.507091 
    0.243889     0.958087     0.596047 
    0.877658     0.298791     0.141200 
    0.835385     0.041770     0.832108 
EA49    4.350  4.896  3.686 105.53 108.22 105.83 Sym.group:    1
1.0
    1.590942    -2.040246    -3.497334
    2.199172     4.373078     0.110971
    1.181196    -1.775194     3.006439
  La  Ga   H
   2   1  12
Direct
    0.728736     0.176630     0.506688 
    0.199314     0.733520     0.520585 
    0.518788     0.495505     0.037369 
    0.552277     0.145802     0.935669 
    0.452900     0.446191     0.464892 
    0.199132     0.149269     0.554412 
    0.161657     0.551827     0.946102 
    0.753750     0.776768     0.602248 
    0.186416     0.966743     0.070553 
    0.977399     0.268817     0.126993 
    0.841206     0.869448     0.142648 
    0.158658     0.257063     0.328535 
    0.746956     0.934663     0.930148 
    0.907780     0.635795     0.869106 
    0.122363     0.065895     0.893938 
EA50    2.822  2.760  8.511 88.85 89.23 90.85 Sym.group:    1
1.0
    2.821597    -0.035062     0.022686
   -0.006579     2.759803     0.001782
    0.048252     0.165546     8.509147
  La  Ga   H
   2   1  12
Direct
    0.960798     0.050776     0.220809 
    0.982667     0.077426     0.780769 
    0.472942     0.566175     0.000975 
    0.809666     0.899681     0.457731 
    0.475190     0.102900     0.602044 
    0.219638     0.799140     0.566331 
    0.434541     0.088167     0.391836 
    0.621380     0.365133     0.566557 
    0.236634     0.854111     0.429630 
    0.164008     0.441058     0.418636 
    0.064674     0.556831     0.602342 
    0.891202     0.338955     0.445569 
    0.663183     0.708204     0.515411 
    0.487954     0.586299     0.736236 
    0.464899     0.544745     0.273747 
EA51    4.346  4.397  4.470 68.96 69.48 105.82 Sym.group:    8
1.0
    4.345484     0.010203    -0.010633
   -1.208721     4.227126    -0.030180
    1.570468     2.143986     3.594290
  La  Ga   H
   2   1  12
Direct
    0.766425     0.765984     0.994068 
    0.264901     0.264455     0.996961 
    0.223017     0.722281     0.495624 
    0.606440     0.345429     0.496178 
    0.837060     0.106050     0.495043 
    0.900142     0.399489     0.250674 
    0.654800     0.155029     0.740449 
    0.683245     0.184437     0.168485 
    0.355803     0.857131     0.823262 
    0.149096     0.283779     0.496016 
    0.782081     0.647684     0.496065 
    0.804090     0.303302     0.828363 
    0.135714     0.634432     0.164177 
    0.389390     0.216025     0.495735 
    0.716157     0.890174     0.495749 
EA52    4.748  3.410  4.900 76.29 110.72 72.77 Sym.group:    1
1.0
    3.552264     3.139181    -0.266716
   -1.393855     3.111170     0.074177
   -2.162830     0.198840     4.392382
  La  Ga   H
   2   1  12
Direct
    0.367163     0.662705     0.700105 
    0.719110     0.353303     0.351345 
    0.981226     0.879659     0.004240 
    0.156351     0.312363     0.366357 
    0.533691     0.920532     0.398364 
    0.367792     0.240422     0.468382 
    0.875397     0.679597     0.653821 
    0.949140     0.761681     0.337691 
    0.338517     0.089950     0.948086 
    0.576665     0.002876     0.039711 
    0.092387     0.284503     0.758544 
    0.308776     0.931957     0.249163 
    0.253049     0.411627     0.048754 
    0.616922     0.069227     0.698742 
    0.874087     0.427450     0.010355 
EA53    4.802  3.785  3.732 87.08 76.99 94.06 Sym.group:    1
1.0
    4.786519    -0.039328     0.381581
   -0.242836     3.776838     0.064706
    0.550255     0.162643     3.688059
  La  Ga   H
   2   1  12
Direct
    0.565170     0.245570     0.529209 
    0.202942     0.731826     0.352407 
    0.769090     0.792425     0.967340 
    0.863624     0.455602     0.725190 
    0.721931     0.767075     0.459505 
    0.980291     0.156286     0.659761 
    0.042007     0.199327     0.401974 
    0.067577     0.436638     0.888069 
    0.540094     0.096658     0.042788 
    0.902144     0.469196     0.194599 
    0.448153     0.717957     0.790128 
    0.182420     0.954320     0.850380 
    0.952155     0.104266     0.174153 
    0.236382     0.452818     0.874382 
    0.327922     0.240657     0.111487 
EA54    4.017  5.877  2.913 86.51 105.58 91.25 Sym.group:    1
1.0
    4.015769    -0.076943     0.031319
   -0.017257     5.874544     0.182674
   -0.802906     0.088043     2.798864
  La  Ga   H
   2   1  12
Direct
    0.992006     0.233776     0.505047 
    0.013517     0.768406     0.496847 
    0.498327     0.001566     0.013624 
    0.638099     0.500091     0.174142 
    0.369097     0.503740     0.827385 
    0.410193     0.262540     0.232875 
    0.583227     0.265964     0.781641 
    0.596234     0.745825     0.772285 
    0.426901     0.733037     0.230286 
    0.358522     0.499542     0.537532 
    0.648354     0.501838     0.467961 
    0.756716     0.415696     0.873828 
    0.259388     0.397392     0.113438 
    0.246006     0.586807     0.126191 
    0.738486     0.610860     0.885716 
EA55    4.470  4.407  4.467 61.81 61.77 61.82 Sym.group:    1
1.0
    4.454182     0.303705     0.218057
    1.801391     4.012438     0.273031
    1.847115     1.224299     3.878550
  La  Ga   H
   2   1  12
Direct
    0.623664     0.615878     0.626794 
    0.378315     0.375363     0.380744 
    0.000548     0.994667     0.001414 
    0.307599     0.950730     0.309289 
    0.303442     0.295252     0.974299 
    0.966428     0.292495     0.310369 
    0.695089     0.031862     0.699121 
    0.695897     0.695352     0.042796 
    0.033004     0.693630     0.702794 
    0.068239     0.545585     0.082658 
    0.072529     0.062191     0.560846 
    0.562357     0.073450     0.064398 
    0.933370     0.442555     0.926639 
    0.932204     0.928145     0.434606 
    0.437908     0.933466     0.928416 
EA56    3.727  3.728  5.303 70.07 109.84 89.55 Sym.group:    2
1.0
    3.727434     0.007435    -0.012921
    0.022155     3.727909     0.007760
   -1.787376     1.808863     4.653243
  La  Ga   H
   2   1  12
Direct
    0.182527     0.815797     0.372935 
    0.820695     0.179177     0.628065 
    0.504189     0.494682     0.000383 
    0.040993     0.616379     0.751750 
    0.709077     0.626600     0.734806 
    0.383302     0.958599     0.750346 
    0.372897     0.289835     0.736237 
    0.965825     0.377609     0.249840 
    0.296606     0.368244     0.265456 
    0.620566     0.033653     0.251887 
    0.629781     0.703237     0.263437 
    0.032420     0.237885     0.000397 
    0.975510     0.756607     0.000623 
    0.242536     0.965507     0.000820 
    0.759783     0.021240     0.000234 
EA57    2.956  3.095  8.128 81.04 89.98 118.52 Sym.group:    1
1.0
    2.945566     0.008225     0.248657
   -1.462330     2.707178    -0.332721
   -0.663882     2.051353     7.836307
  La  Ga   H
   2   1  12
Direct
    0.062213     0.120258     0.627203 
    0.821112     0.634975     0.369244 
    0.074329     0.089126     0.993857 
    0.333468     0.262133     0.209856 
    0.506538     0.989907     0.242778 
    0.001074     0.296094     0.219582 
    0.060346     0.558699     0.788660 
    0.446355     0.624415     0.773092 
    0.672288     0.362769     0.756813 
    0.604074     0.658534     0.892701 
    0.488632     0.040417     0.858077 
    0.967054     0.561661     0.913604 
    0.942874     0.481908     0.114705 
    0.583558     0.483961     0.113148 
    0.467438     0.853624     0.122009 
EA58    4.212  4.213  4.744 63.92 115.73 89.58 Sym.group:    5
1.0
    4.211883     0.013232     0.005959
    0.017572     4.212976     0.008948
   -2.071431     2.085870     3.723034
  La  Ga   H
   2   1  12
Direct
    0.755432     0.750177     0.500744 
    0.256438     0.251180     0.500529 
    0.505464     0.500894     0.000887 
    0.110370     0.319865     0.994805 
    0.897202     0.684121     0.999231 
    0.687172     0.893625     0.001526 
    0.323368     0.104431     0.007295 
    0.109313     0.686350     0.996926 
    0.899208     0.318692     0.998732 
    0.687281     0.107577     0.001270 
    0.323218     0.893134     0.006012 
    0.137476     0.777623     0.263279 
    0.121431     0.965035     0.260805 
    0.967274     0.125854     0.738404 
    0.781049     0.132201     0.738591 
EA59    3.726  3.728  5.311 110.27 109.49 90.87 Sym.group:    2
1.0
    3.725689     0.001945     0.014970
   -0.058561     3.727714     0.006009
   -1.789845    -1.875377     4.634772
  La  Ga   H
   2   1  12
Direct
    0.777104     0.786018     0.568359 
    0.418185     0.413433     0.824166 
    0.101996     0.101957     0.196162 
    0.222696     0.891398     0.452313 
    0.218988     0.565937     0.455899 
    0.893538     0.235623     0.463860 
    0.562095     0.223190     0.445615 
    0.633168     0.359068     0.196384 
    0.573865     0.842390     0.196186 
    0.353432     0.578414     0.196000 
    0.841275     0.626351     0.196567 
    0.972513     0.308776     0.938417 
    0.977900     0.635962     0.938243 
    0.305033     0.963451     0.927180 
    0.638154     0.977333     0.948233 
EA60    4.970  4.952  3.067 89.97 89.95 119.63 Sym.group:    1
1.0
    2.457010     4.320050     0.040381
   -4.952205     0.000065    -0.016917
   -0.012112    -0.018996     3.067059
  La  Ga   H
   2   1  12
Direct
    0.665240     0.333905     0.500219 
    0.333236     0.668298     0.502166 
    0.999200     0.001053     0.501252 
    0.998155     0.693357     0.848907 
    0.295720     0.000547     0.841147 
    0.303176     0.305228     0.851609 
    0.999032     0.301804     0.845502 
    0.694101     0.000828     0.851700 
    0.703283     0.704420     0.843268 
    0.999230     0.700405     0.158658 
    0.302676     0.001897     0.152013 
    0.299518     0.301681     0.155268 
    0.000464     0.303910     0.158662 
    0.699781     0.000948     0.159210 
    0.695300     0.697318     0.149973 
EA61    5.088  5.312  2.862 74.60 90.06 61.41 Sym.group:   71
1.0
    5.087637     0.030458     0.023670
    2.511607     4.641175     0.605000
   -0.019167     0.512883     2.815303
  La  Ga   H
   2   1  12
Direct
    0.017932     0.963239     0.250382 
    0.316050     0.366600     0.548017 
    0.666915     0.665124     0.893177 
    0.019590     0.665085     0.898858 
    0.309879     0.986898     0.737515 
    0.763274     0.294020     0.587014 
    0.632031     0.343162     0.062722 
    0.849403     0.665512     0.394372 
    0.392940     0.035298     0.211356 
    0.023526     0.343261     0.060994 
    0.570970     0.035285     0.211819 
    0.484212     0.665009     0.394904 
    0.314460     0.664636     0.899404 
    0.941360     0.294036     0.586533 
    0.702186     0.987197     0.737057 
EA62    2.793  2.839  8.669 97.34 84.86 103.55 Sym.group:    1
1.0
    2.763354     0.372318     0.167307
   -1.014805     2.642325    -0.223553
    0.306227    -0.340206     8.656482
  La  Ga   H
   2   1  12
Direct
    0.006291     0.910268     0.208048 
    0.965946     0.063140     0.796606 
    0.142836     0.149669     0.502749 
    0.874099     0.573736     0.605330 
    0.502548     0.970141     0.617191 
    0.405648     0.616796     0.674753 
    0.932579     0.475093     0.387168 
    0.527381     0.844873     0.393203 
    0.576695     0.372355     0.326367 
    0.921242     0.634040     0.972793 
    0.629294     0.089897     0.032018 
    0.405313     0.461586     0.087246 
    0.096809     0.362598     0.031952 
    0.378147     0.900333     0.976624 
    0.564151     0.510412     0.911957 
EA63    3.964  3.830  4.308 89.92 89.91 90.09 Sym.group:    1
1.0
    3.964301    -0.001092    -0.026836
   -0.004726     3.829679     0.029132
    0.035892    -0.026861     4.307598
  La  Ga   H
   2   1  12
Direct
    0.004734     0.501541     0.250742 
    0.508262     0.001182     0.251680 
    0.499965     0.499118     0.749324 
    0.162340     0.847438     0.573689 
    0.837159     0.166982     0.570878 
    0.161516     0.152405     0.574400 
    0.833494     0.830386     0.570908 
    0.818674     0.817303     0.925804 
    0.141491     0.125431     0.930775 
    0.153969     0.864088     0.929139 
    0.830885     0.173209     0.926103 
    0.400602     0.001356     0.742967 
    0.611259     0.000814     0.750799 
    0.005072     0.389314     0.755341 
    0.008324     0.612139     0.754070 
EA64    3.476  3.756  5.091 93.43 95.03 90.68 Sym.group:    2
1.0
    3.473142     0.008513    -0.136023
   -0.057749     3.754583    -0.095365
   -0.246818    -0.179754     5.081497
  La  Ga   H
   2   1  12
Direct
    0.497800     0.500848     0.003033 
    0.998106     0.000168     0.502712 
    0.498207     0.499928     0.502997 
    0.267750     0.989213     0.909825 
    0.525438     0.922284     0.715148 
    0.964375     0.256267     0.862794 
    0.959149     0.525386     0.712076 
    0.728620     0.012425     0.095607 
    0.470687     0.075892     0.289596 
    0.030645     0.744504     0.142458 
    0.038113     0.475588     0.294642 
    0.226073     0.998294     0.097925 
    0.769071     0.004156     0.906889 
    0.015504     0.254070     0.157334 
    0.980076     0.746902     0.848423 
EA65    3.811  5.308  3.809 69.15 89.91 110.68 Sym.group:    1
1.0
    3.810624     0.021811    -0.013392
   -1.903710     4.952817    -0.158968
    0.009442     1.567895     3.471337
  La  Ga   H
   2   1  12
Direct
    0.783417     0.569709     0.212357 
    0.207870     0.419388     0.787674 
    0.493143     0.993927     0.499262 
    0.360900     0.081391     0.961306 
    0.639848     0.913516     0.046866 
    0.265201     0.915405     0.031741 
    0.719498     0.080053     0.954071 
    0.959084     0.910494     0.724732 
    0.029599     0.076889     0.645189 
    0.042058     0.083259     0.281027 
    0.948833     0.917324     0.346916 
    0.832139     0.671605     0.661344 
    0.163646     0.326911     0.333425 
    0.662737     0.327155     0.830390 
    0.333673     0.672569     0.154952 
EA66    4.292  5.586  2.810 91.45 88.68 102.34 Sym.group:    1
1.0
    4.265134    -0.477537     0.042759
   -0.578387     5.555129    -0.091884
    0.034345    -0.021503     2.809874
  La  Ga   H
   2   1  12
Direct
    0.460909     0.160258     0.491815 
    0.545129     0.680927     0.471600 
    0.984132     0.450252     0.866026 
    0.305565     0.382672     0.028361 
    0.872282     0.756700     0.976438 
    0.197650     0.720101     0.995634 
    0.607383     0.436054     0.982292 
    0.113496     0.025915     0.987667 
    0.711641     0.960998     0.970286 
    0.323009     0.876227     0.978294 
    0.790805     0.161373     0.980766 
    0.063910     0.779909     0.447554 
    0.020604     0.110951     0.195890 
    0.955735     0.135592     0.536079 
    0.007272     0.900343     0.578777 
EA67    5.105  3.794  3.696 72.99 80.02 74.81 Sym.group:    1
1.0
    5.102405     0.072439     0.133723
    0.944035     3.674452    -0.058090
    0.533985     1.035042     3.508216
  La  Ga   H
   2   1  12
Direct
    0.235416     0.668533     0.927832 
    0.647108     0.046518     0.299970 
    0.911346     0.374065     0.647361 
    0.238516     0.148741     0.448911 
    0.844110     0.919760     0.785745 
    0.425370     0.596764     0.405118 
    0.589046     0.363955     0.712440 
    0.295981     0.408328     0.496172 
    0.643348     0.765966     0.874834 
    0.593943     0.618163     0.131863 
    0.424068     0.121506     0.838248 
    0.085667     0.186241     0.015883 
    0.039932     0.784700     0.445097 
    0.173899     0.989071     0.338743 
    0.872951     0.491217     0.193529 
EA68    3.649  3.692  4.900 89.74 90.18 90.05 Sym.group:    3
1.0
    3.648761    -0.005031     0.018189
    0.001988     3.691475     0.020581
   -0.039653    -0.004785     4.899947
  La  Ga   H
   2   1  12
Direct
    0.490217     0.505061     0.001429 
    0.990424     0.004889     0.001118 
    0.500812     0.502767     0.501336 
    0.055214     0.659678     0.681965 
    0.046863     0.349834     0.321782 
    0.946637     0.652435     0.321361 
    0.946602     0.351973     0.678862 
    0.635463     0.057727     0.679837 
    0.640037     0.952567     0.324562 
    0.350084     0.056359     0.322917 
    0.354093     0.949100     0.684530 
    0.845105     0.844366     0.623514 
    0.842464     0.159515     0.379172 
    0.150230     0.841289     0.377925 
    0.143447     0.164754     0.622844 
EA69    2.746  2.778 10.009 82.36 97.88 119.06 Sym.group:    1
1.0
   -1.385209     2.370958     0.022959
   -1.407442    -2.382692    -0.242697
   -0.732483    -2.111879     9.756504
  La  Ga   H
   2   1  12
Direct
    0.048351     0.545343     0.828602 
    0.879299     0.749540     0.256064 
    0.463586     0.147229     0.042283 
    0.110253     0.608995     0.622079 
    0.845678     0.633675     0.623192 
    0.256195     0.373391     0.387625 
    0.671276     0.929537     0.697369 
    0.290690     0.275433     0.583128 
    0.595790     0.053150     0.380311 
    0.640613     0.003792     0.578190 
    0.641209     0.000051     0.500860 
    0.332825     0.239033     0.704423 
    0.295811     0.375859     0.506797 
    0.080494     0.846412     0.461215 
    0.830393     0.556573     0.462996 
EA70    4.885  4.926  3.142 90.01 90.01 119.31 Sym.group:    1
1.0
    2.450455    -4.225877     0.035495
    2.506581     4.240650    -0.033533
   -0.002433     0.025802     3.142064
  La  Ga   H
   2   1  12
Direct
    0.660222     0.327733     0.919881 
    0.327421     0.671323     0.916778 
    0.018529     0.006677     0.320846 
    0.194319     0.208840     0.902043 
    0.791248     0.994071     0.930189 
    0.980023     0.791314     0.907769 
    0.429483     0.438746     0.402199 
    0.595349     0.996844     0.393411 
    0.988756     0.571173     0.399348 
    0.652146     0.658252     0.396383 
    0.355381     0.001294     0.418064 
    0.994236     0.344825     0.402560 
    0.287238     0.299788     0.620432 
    0.735657     0.995243     0.648263 
    0.982140     0.707873     0.626476 
EA71    3.726  3.725  5.328 70.12 110.35 89.33 Sym.group:    1
1.0
    3.725670     0.015984    -0.002784
    0.027277     3.724857     0.018361
   -1.857128     1.802247     4.657107
  La  Ga   H
   2   1  12
Direct
    0.201576     0.801279     0.409099 
    0.828973     0.164776     0.664695 
    0.520255     0.478413     0.036824 
    0.052944     0.604593     0.779997 
    0.725670     0.608644     0.778245 
    0.391908     0.943155     0.786391 
    0.382809     0.274501     0.772146 
    0.982819     0.359378     0.296429 
    0.307230     0.357880     0.292496 
    0.640181     0.018039     0.288739 
    0.648230     0.688346     0.300282 
    0.773715     0.955877     0.036675 
    0.258252     0.996670     0.037228 
    0.007854     0.226957     0.036284 
    0.035461     0.740284     0.037601 
EA72    4.694  4.206  3.729 94.42 85.58 116.40 Sym.group:    1
1.0
    2.785304    -3.777627     0.082842
    1.922093     3.741253     0.017957
   -0.052379    -0.314094     3.715171
  La  Ga   H
   2   1  12
Direct
    0.667830     0.344307     0.140531 
    0.324310     0.662481     0.860689 
    0.995873     0.000478     0.502382 
    0.400990     0.922279     0.415322 
    0.094227     0.630438     0.402364 
    0.321446     0.461487     0.365965 
    0.896666     0.366778     0.600467 
    0.662411     0.532278     0.637378 
    0.586483     0.092944     0.591515 
    0.928662     0.795149     0.899038 
    0.313975     0.164413     0.764421 
    0.921163     0.109084     0.929993 
    0.664684     0.834642     0.260693 
    0.067991     0.892675     0.079579 
    0.058782     0.211372     0.105853 
EA73    5.589  5.376  5.266 109.53 114.66 68.51 Sym.group:    1
1.0
    5.588023     0.055308    -0.105992
    1.920217     5.021129    -0.007992
   -2.097865    -1.075131     4.709188
  La  Ga   H
   4   2  24
Direct
    0.085028     0.475730     0.586409 
    0.364119     0.441625     0.239495 
    0.593713     0.040703     0.559109 
    0.739811     0.648091     0.054907 
    0.076420     0.041453     0.100266 
    0.117271     0.930975     0.501215 
    0.785158     0.047903     0.279761 
    0.330119     0.746336     0.805689 
    0.828194     0.251427     0.888211 
    0.030290     0.367167     0.883882 
    0.140500     0.206420     0.834068 
    0.078951     0.686109     0.994447 
    0.733422     0.394341     0.623671 
    0.010232     0.902341     0.744582 
    0.477181     0.390972     0.887499 
    0.656326     0.297600     0.040408 
    0.373946     0.027950     0.090501 
    0.864757     0.226745     0.547287 
    0.839820     0.746905     0.780038 
    0.784851     0.319854     0.233477 
    0.469280     0.760153     0.618684 
    0.683873     0.620943     0.401972 
    0.683871     0.659451     0.639054 
    0.611703     0.062102     0.183464 
    0.352135     0.118948     0.807618 
    0.765878     0.973702     0.967395 
    0.534296     0.045203     0.913549 
    0.330321     0.687433     0.939899 
    0.496173     0.466157     0.670105 
    0.411918     0.776349     0.219770 
EA74    4.626  4.635  7.410 89.83 89.44 60.54 Sym.group:    1
1.0
    2.289044    -4.020372    -0.011673
    4.634853     0.015458     0.000419
    0.021330    -0.092156     7.409227
  La  Ga   H
   4   2  24
Direct
    0.325163     0.345151     0.163240 
    0.661065     0.680427     0.165515 
    0.665207     0.680567     0.836953 
    0.331407     0.342766     0.834683 
    0.000826     0.998095     0.500197 
    0.996022     0.011532     0.000197 
    0.874743     0.430462     0.395968 
    0.571865     0.301817     0.393400 
    0.701583     0.872413     0.397717 
    0.129357     0.560312     0.401214 
    0.439202     0.689189     0.399888 
    0.307865     0.125150     0.394686 
    0.123025     0.304524     0.604999 
    0.687488     0.436317     0.607165 
    0.562599     0.124680     0.600169 
    0.877019     0.688909     0.602972 
    0.309944     0.566643     0.601409 
    0.431380     0.877454     0.603346 
    0.130737     0.563599     0.601840 
    0.434739     0.694817     0.604275 
    0.306956     0.127307     0.603408 
    0.875681     0.423826     0.608192 
    0.572784     0.300118     0.600227 
    0.699705     0.868939     0.601223 
    0.872749     0.686867     0.399011 
    0.306037     0.565874     0.398242 
    0.429022     0.874358     0.399014 
    0.123560     0.301474     0.394618 
    0.691190     0.431076     0.397572 
    0.569180     0.121188     0.390715 
EA75    5.258  5.308  5.235 103.34 98.31 102.62 Sym.group:    1
1.0
    5.254988    -0.021669     0.171303
   -1.136386     5.184829    -0.070333
   -0.925076    -1.372568     4.966907
  La  Ga   H
   4   2  24
Direct
    0.998539     0.999322     0.504841 
    0.502805     0.005073     0.994872 
    0.007175     0.494485     0.997935 
    0.497297     0.498698     0.500191 
    0.139061     0.147844     0.143129 
    0.859336     0.835962     0.860426 
    0.647047     0.157731     0.400753 
    0.407143     0.653485     0.174714 
    0.155948     0.409038     0.640905 
    0.339913     0.832878     0.587321 
    0.607125     0.367936     0.836207 
    0.836642     0.590918     0.348383 
    0.622490     0.420374     0.138786 
    0.147349     0.625133     0.409963 
    0.408412     0.143344     0.623059 
    0.382652     0.590036     0.866122 
    0.847278     0.370988     0.585523 
    0.587335     0.853471     0.374382 
    0.735908     0.746932     0.147968 
    0.151416     0.733595     0.738416 
    0.737631     0.143960     0.731708 
    0.275935     0.260401     0.849304 
    0.851988     0.262991     0.259098 
    0.258226     0.856973     0.259288 
    0.089234     0.456913     0.404584 
    0.411612     0.085860     0.448522 
    0.448252     0.412308     0.090407 
    0.904257     0.540265     0.589909 
    0.593809     0.913371     0.552469 
    0.550973     0.586671     0.911730 
EA76    4.386  5.527  5.469 92.51 90.50 92.07 Sym.group:    1
1.0
    4.385666    -0.060139    -0.020831
   -0.124235     5.524742    -0.078865
   -0.023874    -0.162395     5.466348
  La  Ga   H
   4   2  24
Direct
    0.774814     0.346184     0.888896 
    0.295040     0.158917     0.114358 
    0.645208     0.778720     0.182912 
    0.152850     0.725870     0.819147 
    0.069416     0.521171     0.338928 
    0.633871     0.952525     0.669241 
    0.153371     0.793784     0.185347 
    0.660705     0.691278     0.816787 
    0.237403     0.344238     0.799585 
    0.776172     0.171861     0.218223 
    0.211904     0.088621     0.728354 
    0.675439     0.412112     0.257192 
    0.434452     0.467089     0.336581 
    0.001428     0.078343     0.663510 
    0.512898     0.535510     0.617102 
    0.044424     0.957643     0.367088 
    0.919613     0.080177     0.340221 
    0.387940     0.419773     0.677338 
    0.772387     0.246108     0.515178 
    0.162070     0.215166     0.484141 
    0.903594     0.764412     0.502621 
    0.211866     0.850794     0.465288 
    0.648854     0.344664     0.507926 
    0.344910     0.195446     0.499039 
    0.644274     0.639381     0.515629 
    0.364232     0.750671     0.491063 
    0.892700     0.996255     0.967553 
    0.384226     0.506093     0.029032 
    0.039574     0.429777     0.610685 
    0.506746     0.040145     0.408294 
EA77    3.793  3.419 10.347 95.26 86.31 94.09 Sym.group:    1
1.0
    3.790421    -0.098958     0.093446
   -0.151565     3.413372    -0.134671
    0.398030    -0.525193    10.325896
  La  Ga   H
   4   2  24
Direct
    0.562390     0.460961     0.728553 
    0.420492     0.530210     0.234546 
    0.063688     0.994576     0.636190 
    0.914301     0.067018     0.137453 
    0.931095     0.984436     0.402072 
    0.048698     0.773787     0.906124 
    0.259493     0.512726     0.545677 
    0.734675     0.645572     0.520081 
    0.748500     0.233828     0.970184 
    0.420161     0.995098     0.088037 
    0.715133     0.461753     0.031763 
    0.153981     0.559474     0.052033 
    0.473988     0.176345     0.511216 
    0.563199     0.930152     0.584476 
    0.587728     0.751065     0.012228 
    0.264060     0.159971     0.988523 
    0.265688     0.728413     0.456061 
    0.880915     0.438291     0.528355 
    0.474315     0.295541     0.922239 
    0.483193     0.566013     0.923986 
    0.494100     0.317460     0.429542 
    0.559297     0.572860     0.418910 
    0.258971     0.027194     0.293939 
    0.585790     0.028619     0.324529 
    0.047563     0.300141     0.841919 
    0.070611     0.544425     0.730204 
    0.748296     0.964820     0.821736 
    0.387201     0.963197     0.813219 
    0.978361     0.433117     0.362895 
    0.925021     0.627295     0.251682 
EA78    5.504  5.642  5.316 102.74 67.99 70.24 Sym.group:    1
1.0
    0.905313     3.086797     4.466393
   -2.662759     4.946177    -0.528371
   -2.242231    -2.080407     4.347932
  La  Ga   H
   4   2  24
Direct
    0.317572     0.161099     0.081948 
    0.647086     0.427911     0.506993 
    0.059880     0.497668     0.827288 
    0.928412     0.895164     0.599622 
    0.476919     0.945827     0.459809 
    0.485113     0.629480     0.131150 
    0.090851     0.688701     0.170155 
    0.816837     0.310052     0.769223 
    0.406542     0.235334     0.408653 
    0.571456     0.816922     0.676365 
    0.932556     0.563165     0.308873 
    0.050964     0.216461     0.508570 
    0.273965     0.494149     0.379915 
    0.697954     0.688527     0.798096 
    0.503126     0.191807     0.698214 
    0.763765     0.017808     0.342116 
    0.359460     0.472971     0.964133 
    0.651022     0.285023     0.832602 
    0.646825     0.242650     0.102990 
    0.326742     0.776126     0.923815 
    0.146359     0.091783     0.770120 
    0.961049     0.824128     0.177035 
    0.992792     0.053463     0.171345 
    0.953861     0.179190     0.048657 
    0.737780     0.060897     0.082731 
    0.214350     0.825314     0.839347 
    0.722657     0.883469     0.033736 
    0.285352     0.727502     0.602129 
    0.817340     0.376885     0.087058 
    0.158848     0.938536     0.242986 
EA79    4.958  4.960  6.509 90.73 90.76 60.02 Sym.group:    1
1.0
    2.494351     4.285340    -0.014126
   -2.466394     4.303193     0.009273
    0.026861    -0.094660     6.508158
  La  Ga   H
   4   2  24
Direct
    0.998772     0.998077     0.499458 
    0.001547     0.502909     0.004530 
    0.501347     0.502659     0.997038 
    0.501542     0.002619     0.996620 
    0.999115     0.001399     0.844171 
    0.004140     0.004656     0.155002 
    0.579829     0.259107     0.702090 
    0.743220     0.834871     0.703424 
    0.161968     0.577986     0.704339 
    0.422591     0.741811     0.703750 
    0.258429     0.163832     0.703701 
    0.840036     0.421388     0.703725 
    0.423021     0.838952     0.295363 
    0.162804     0.257151     0.297555 
    0.740482     0.420253     0.296007 
    0.577950     0.162902     0.293947 
    0.833798     0.742557     0.295608 
    0.259639     0.578003     0.294334 
    0.526562     0.313968     0.579343 
    0.686004     0.840892     0.580251 
    0.158514     0.527911     0.579873 
    0.471357     0.686292     0.580524 
    0.313435     0.157560     0.581588 
    0.842599     0.471371     0.581238 
    0.471390     0.840438     0.420548 
    0.159688     0.311521     0.421319 
    0.684842     0.471821     0.418418 
    0.526711     0.159508     0.415750 
    0.843012     0.683385     0.416933 
    0.313557     0.528474     0.418146 
EA80    6.136  5.553  3.939 90.06 89.98 89.96 Sym.group:    1
1.0
    6.136023    -0.043856     0.016261
    0.044107     5.552745    -0.051986
   -0.008959     0.032486     3.938640
  La  Ga   H
   4   2  24
Direct
    0.298676     0.402797     0.514890 
    0.703084     0.594012     0.516082 
    0.795730     0.091487     0.016117 
    0.200098     0.899360     0.015196 
    0.496375     0.996361     0.515679 
    0.002690     0.487139     0.015297 
    0.499773     0.992608     0.900522 
    0.005209     0.517430     0.399130 
    0.919574     0.799858     0.773268 
    0.077519     0.197291     0.769389 
    0.422167     0.697580     0.270953 
    0.579303     0.300080     0.270965 
    0.945850     0.212605     0.516191 
    0.049868     0.805526     0.514441 
    0.449205     0.296336     0.014124 
    0.553759     0.704673     0.016710 
    0.689523     0.742852     0.017027 
    0.315487     0.246300     0.014768 
    0.185050     0.752795     0.515392 
    0.810783     0.246444     0.516770 
    0.775886     0.966103     0.515980 
    0.216049     0.036033     0.515673 
    0.282945     0.532168     0.015220 
    0.722724     0.462990     0.015835 
    0.077328     0.195861     0.263558 
    0.920623     0.801977     0.263305 
    0.578655     0.300213     0.762035 
    0.422059     0.695146     0.762796 
    0.496784     0.002161     0.130726 
    0.007103     0.523121     0.632222 
EA81    4.986  5.008  5.339 91.49 90.13 89.92 Sym.group:    5
1.0
    4.985356    -0.033226     0.026080
    0.040858     5.007982    -0.034397
   -0.040348    -0.101535     5.337762
  La  Ga   H
   4   2  24
Direct
    0.998651     0.503512     0.248782 
    0.499670     0.996793     0.249409 
    0.999645     0.497440     0.749452 
    0.499229     0.003859     0.748820 
    0.001812     0.000723     0.999730 
    0.501354     0.500483     0.499527 
    0.298966     0.300048     0.991425 
    0.798771     0.201119     0.507139 
    0.202420     0.796672     0.507210 
    0.703857     0.705472     0.991026 
    0.202349     0.203801     0.491705 
    0.704039     0.294795     0.007393 
    0.297409     0.702198     0.007195 
    0.799609     0.800528     0.491726 
    0.868511     0.133892     0.274132 
    0.368016     0.366228     0.226954 
    0.622699     0.623610     0.221260 
    0.125100     0.874723     0.278021 
    0.379773     0.617495     0.133173 
    0.881546     0.884041     0.365534 
    0.117784     0.125160     0.362012 
    0.617295     0.375067     0.135186 
    0.117921     0.875406     0.637274 
    0.617203     0.624935     0.863638 
    0.381504     0.384253     0.866136 
    0.880194     0.117953     0.634710 
    0.624923     0.375509     0.777137 
    0.123896     0.124950     0.721125 
    0.868694     0.867120     0.726075 
    0.368726     0.634367     0.772958 
EA82    2.928  5.207  8.694 89.70 92.20 89.24 Sym.group:    1
1.0
    2.927581     0.004115    -0.035776
    0.061982     5.206744    -0.010225
   -0.228056     0.065447     8.690481
  La  Ga   H
   4   2  24
Direct
    0.719953     0.241019     0.244731 
    0.267222     0.742702     0.254795 
    0.230663     0.726830     0.732971 
    0.763875     0.227064     0.764616 
    0.332483     0.973699     0.983696 
    0.670677     0.482299     0.513764 
    0.181837     0.678767     0.995835 
    0.794365     0.432472     0.972267 
    0.205748     0.953103     0.518929 
    0.787433     0.177731     0.502013 
    0.783962     0.257372     0.003386 
    0.457444     0.512124     0.074860 
    0.641945     0.022471     0.439959 
    0.206774     0.769608     0.495157 
    0.280939     0.439744     0.896761 
    0.762367     0.585884     0.895644 
    0.241367     0.090923     0.603815 
    0.714834     0.937955     0.606537 
    0.757792     0.604964     0.102650 
    0.206401     0.412272     0.100791 
    0.774442     0.887612     0.396825 
    0.240110     0.090287     0.390437 
    0.195070     0.089683     0.137662 
    0.757026     0.898990     0.110780 
    0.236587     0.391214     0.391143 
    0.799091     0.576356     0.354184 
    0.774735     0.867836     0.884826 
    0.277769     0.285541     0.935457 
    0.716994     0.787815     0.562265 
    0.215274     0.372384     0.610657 
EA83    5.205  5.336  5.985 64.67 98.47 118.88 Sym.group:    1
1.0
    2.585202     4.500804    -0.388372
   -5.335183     0.076835    -0.083249
   -2.629998     0.947373     5.292081
  La  Ga   H
   4   2  24
Direct
    0.661111     0.215045     0.218574 
    0.398433     0.794726     0.793045 
    0.245818     0.534864     0.286940 
    0.725849     0.427718     0.725516 
    0.119020     0.181243     0.820451 
    0.869240     0.817843     0.190945 
    0.010444     0.675568     0.988224 
    0.362060     0.349924     0.013456 
    0.670577     0.994280     0.016028 
    0.036559     0.358643     0.998205 
    0.612384     0.604160     0.053648 
    0.362820     0.017528     0.988279 
    0.010018     0.870674     0.678970 
    0.404983     0.543263     0.626610 
    0.900224     0.225799     0.577730 
    0.264021     0.173660     0.265939 
    0.638558     0.763696     0.392465 
    0.904171     0.518016     0.414436 
    0.983998     0.082394     0.306488 
    0.572874     0.441088     0.386812 
    0.221197     0.926516     0.230918 
    0.814770     0.810945     0.815199 
    0.302696     0.184618     0.615247 
    0.131007     0.583972     0.577191 
    0.597095     0.195895     0.520427 
    0.062853     0.877596     0.550615 
    0.678999     0.851347     0.541468 
    0.276605     0.827812     0.446331 
    0.830750     0.027602     0.537600 
    0.311436     0.126097     0.422945 
EA84    5.059  5.516  4.858 95.00 84.35 95.07 Sym.group:    1
1.0
    5.050284    -0.220012     0.208976
   -0.239540     5.506448    -0.219052
    0.269184    -0.219564     4.845143
  La  Ga   H
   4   2  24
Direct
    0.515537     0.950419     0.076676 
    0.990949     0.539197     0.012750 
    0.471701     0.386547     0.983003 
    0.517647     0.547925     0.500322 
    0.998947     0.061423     0.323118 
    0.034095     0.032166     0.761766 
    0.849509     0.397147     0.634046 
    0.893515     0.720283     0.400606 
    0.144684     0.416865     0.358310 
    0.136062     0.691542     0.646713 
    0.615369     0.161587     0.484541 
    0.706250     0.889404     0.662817 
    0.383149     0.038339     0.702424 
    0.242499     0.837486     0.389982 
    0.645509     0.915430     0.490312 
    0.370804     0.933608     0.530973 
    0.982444     0.412054     0.500363 
    0.982428     0.685933     0.553668 
    0.758875     0.269274     0.246618 
    0.714758     0.685973     0.823236 
    0.200750     0.328081     0.687515 
    0.291447     0.666134     0.227217 
    0.653390     0.190589     0.642273 
    0.680273     0.687460     0.178989 
    0.360038     0.204916     0.363640 
    0.336821     0.684578     0.840354 
    0.878366     0.892503     0.058126 
    0.796194     0.201365     0.911264 
    0.172367     0.856553     0.952773 
    0.146752     0.187202     0.051493 
EA85    5.277  5.326  5.610 79.40 72.37 60.39 Sym.group:    1
1.0
    2.798551     4.471106     0.162909
   -2.529279     4.686324     0.067019
    0.611743     1.425901     5.390770
  La  Ga   H
   4   2  24
Direct
    0.373952     0.880834     0.828149 
    0.110483     0.685543     0.395182 
    0.816557     0.228052     0.761685 
    0.520494     0.125825     0.262870 
    0.125090     0.483560     0.913932 
    0.684388     0.523630     0.360874 
    0.830075     0.618214     0.698005 
    0.848643     0.707495     0.184331 
    0.224938     0.971439     0.500112 
    0.492564     0.234993     0.604319 
    0.914972     0.273457     0.067476 
    0.700976     0.911454     0.933199 
    0.427421     0.542823     0.644014 
    0.412781     0.833173     0.215789 
    0.981434     0.864065     0.044559 
    0.974363     0.072918     0.121049 
    0.541724     0.506358     0.133606 
    0.364256     0.519130     0.034032 
    0.657418     0.795558     0.502621 
    0.185086     0.319250     0.644911 
    0.793504     0.863555     0.712562 
    0.034810     0.346263     0.443627 
    0.125871     0.268276     0.191848 
    0.666537     0.037636     0.591051 
    0.081252     0.782136     0.737539 
    0.186509     0.056274     0.212935 
    0.735557     0.568894     0.956473 
    0.440021     0.187142     0.908765 
    0.684937     0.753303     0.028606 
    0.858329     0.143619     0.395566 
EA86    5.478  5.259  5.516 103.05 71.28 118.64 Sym.group:    1
1.0
    2.880509    -4.645985    -0.356893
    2.596001     4.537510     0.575807
    0.329339    -2.268606     5.017338
  La  Ga   H
   4   2  24
Direct
    0.278853     0.303063     0.880694 
    0.680762     0.708313     0.209390 
    0.788144     0.810139     0.713752 
    0.159037     0.223699     0.395718 
    0.270401     0.725768     0.705773 
    0.805383     0.254560     0.197572 
    0.407406     0.944673     0.265822 
    0.053302     0.773615     0.335522 
    0.658952     0.250401     0.646803 
    0.634856     0.337748     0.961020 
    0.776688     0.453015     0.856670 
    0.543031     0.099715     0.754394 
    0.118782     0.683232     0.407281 
    0.298102     0.936897     0.151485 
    0.037274     0.561734     0.058380 
    0.432272     0.878281     0.404126 
    0.638257     0.039940     0.976977 
    0.945104     0.488412     0.566701 
    0.461850     0.185696     0.521779 
    0.796108     0.522538     0.422486 
    0.570623     0.395618     0.497078 
    0.536409     0.281501     0.184039 
    0.957710     0.663895     0.894254 
    0.421750     0.028151     0.976777 
    0.242059     0.979017     0.598145 
    0.104913     0.927518     0.048189 
    0.928867     0.265782     0.769157 
    0.722199     0.052028     0.476166 
    0.400006     0.725401     0.005136 
    0.239055     0.571565     0.223824 
EA87   10.314  4.549  2.796 89.89 97.58 87.90 Sym.group:    1
1.0
    9.992006    -0.035733    -2.558229
    0.197795     4.544889     0.037503
    0.329802    -0.031801     2.776526
  La  Ga   H
   4   2  24
Direct
    0.884928     0.093110     0.076566 
    0.232040     0.570878     0.250123 
    0.418009     0.064189     0.343128 
    0.983452     0.592363     0.632314 
    0.127876     0.081537     0.699036 
    0.508221     0.553753     0.880615 
    0.361981     0.742990     0.817162 
    0.559425     0.147093     0.916846 
    0.222663     0.063063     0.245957 
    0.067093     0.310133     0.171569 
    0.278145     0.245796     0.773538 
    0.276835     0.888499     0.772044 
    0.069867     0.859136     0.170932 
    0.552818     0.941440     0.910337 
    0.365018     0.391461     0.814721 
    0.687862     0.562909     0.352211 
    0.617595     0.025894     0.455624 
    0.810462     0.517893     0.876327 
    0.578020     0.314293     0.415634 
    0.672695     0.597405     0.637275 
    0.743038     0.123556     0.499949 
    0.700664     0.961394     0.107666 
    0.820865     0.651393     0.145564 
    0.663769     0.625668     0.003697 
    0.595869     0.848830     0.427341 
    0.717228     0.871815     0.883372 
    0.702031     0.298805     0.081866 
    0.697911     0.261276     0.795584 
    0.810757     0.404991     0.561022 
    0.805918     0.796520     0.511687 
EA88    5.594  5.272  4.462 88.80 83.00 89.32 Sym.group:    1
1.0
    5.591208    -0.100100     0.157352
    0.151281     5.266568     0.184438
    0.418058    -0.073761     4.441677
  La  Ga   H
   4   2  24
Direct
    0.031865     0.010894     0.541376 
    0.881079     0.428299     0.932902 
    0.632578     0.828497     0.278014 
    0.394524     0.273331     0.872338 
    0.243496     0.776257     0.990182 
    0.227928     0.486801     0.392862 
    0.322013     0.015542     0.206272 
    0.676974     0.210231     0.444061 
    0.590576     0.910919     0.787327 
    0.857795     0.669892     0.577960 
    0.996468     0.708537     0.246745 
    0.375703     0.923058     0.651554 
    0.784328     0.467213     0.414466 
    0.931216     0.380720     0.452449 
    0.084127     0.079035     0.001817 
    0.835818     0.161355     0.243219 
    0.534048     0.610197     0.675297 
    0.876768     0.038440     0.993630 
    0.530825     0.616056     0.941223 
    0.723843     0.077871     0.907503 
    0.742199     0.786803     0.765540 
    0.121197     0.651159     0.703117 
    0.309271     0.781954     0.474399 
    0.609272     0.219681     0.188031 
    0.108905     0.247793     0.186610 
    0.581082     0.503011     0.533169 
    0.539164     0.446734     0.244752 
    0.673532     0.133816     0.607606 
    0.368829     0.174153     0.396020 
    0.904968     0.806799     0.920164 
EA89    6.067  6.163  3.707 84.05 94.32 72.06 Sym.group:    1
1.0
    6.056585     0.263587    -0.235176
    1.654984     5.929575     0.299703
   -0.147416     0.253973     3.695591
  La  Ga   H
   4   2  24
Direct
    0.768480     0.542611     0.439151 
    0.415950     0.809957     0.830066 
    0.578674     0.190136     0.178127 
    0.222699     0.455443     0.560670 
    0.074113     0.111041     0.263262 
    0.921150     0.881812     0.731409 
    0.670229     0.891428     0.517977 
    0.446363     0.556485     0.260500 
    0.681243     0.471227     0.944254 
    0.470561     0.899110     0.321207 
    0.323284     0.106226     0.482566 
    0.548855     0.428729     0.722035 
    0.309519     0.523357     0.056010 
    0.524649     0.098595     0.687611 
    0.967910     0.736071     0.319369 
    0.173211     0.817566     0.383363 
    0.884346     0.966691     0.158231 
    0.988382     0.569657     0.030250 
    0.025480     0.261982     0.684750 
    0.841331     0.179071     0.589102 
    0.104999     0.030136     0.835090 
    0.010823     0.432568     0.988722 
    0.348783     0.732314     0.334452 
    0.771119     0.689796     0.914098 
    0.292611     0.141659     0.920663 
    0.844748     0.316314     0.996575 
    0.693032     0.237461     0.688947 
    0.223972     0.304719     0.088743 
    0.703638     0.858421     0.082285 
    0.147825     0.685529     0.997078 
EA90    7.286  5.155  3.777 107.23 100.19 96.22 Sym.group:    2
1.0
    7.279731     0.226691    -0.196403
   -0.725357     5.095979    -0.289615
   -0.540333    -1.004160     3.600873
  La  Ga   H
   4   2  24
Direct
    0.642032     0.883639     0.246469 
    0.305149     0.546189     0.301952 
    0.692976     0.450807     0.696505 
    0.356044     0.113348     0.751952 
    0.016978     0.228879     0.496439 
    0.981123     0.768040     0.501831 
    0.650986     0.218254     0.072400 
    0.459658     0.197469     0.316504 
    0.648772     0.080182     0.826891 
    0.436350     0.548279     0.840982 
    0.347109     0.778727     0.926001 
    0.538461     0.799529     0.681939 
    0.349281     0.916809     0.171529 
    0.561772     0.448695     0.157453 
    0.808972     0.248098     0.272027 
    0.121091     0.223329     0.927090 
    0.054117     0.010713     0.003063 
    0.972471     0.547784     0.783001 
    0.189118     0.748864     0.726381 
    0.876982     0.773732     0.071280 
    0.944120     0.986111     0.995222 
    0.025638     0.449127     0.215297 
    0.078757     0.695647     0.027314 
    0.775723     0.853193     0.753439 
    0.150210     0.846397     0.182865 
    0.785738     0.529135     0.271463 
    0.919295     0.301111     0.970940 
    0.222389     0.143815     0.244986 
    0.847859     0.150404     0.815465 
    0.212368     0.467821     0.726954 
EA91    5.250  5.434  5.472 64.79 83.08 69.19 Sym.group:    1
1.0
    5.250092     0.026965     0.005372
    1.904489     5.086227     0.187171
    0.643472     2.064263     5.026653
  La  Ga   H
   4   2  24
Direct
    0.457316     0.665869     0.552724 
    0.007984     0.835278     0.069289 
    0.046625     0.366038     0.930444 
    0.004746     0.126784     0.519015 
    0.509075     0.062724     0.746472 
    0.466851     0.312433     0.269881 
    0.306541     0.550028     0.951196 
    0.749011     0.258201     0.794935 
    0.623385     0.581505     0.915114 
    0.443273     0.290246     0.906731 
    0.055006     0.734691     0.713559 
    0.174909     0.480326     0.502926 
    0.660304     0.392783     0.413620 
    0.783822     0.165846     0.200372 
    0.864778     0.512725     0.574208 
    0.645404     0.414582     0.928312 
    0.752696     0.585594     0.180220 
    0.828260     0.582823     0.377855 
    0.333055     0.835367     0.821604 
    0.075802     0.669487     0.499279 
    0.705615     0.708538     0.003111 
    0.119686     0.435004     0.264135 
    0.172731     0.964511     0.261118 
    0.338467     0.092016     0.255145 
    0.777239     0.806952     0.631316 
    0.655593     0.888069     0.243446 
    0.592454     0.997284     0.090209 
    0.351586     0.933386     0.057001 
    0.410849     0.674540     0.171732 
    0.792607     0.879067     0.436180 
EA92    4.453  9.058  3.647 84.49 66.44 77.30 Sym.group:    1
1.0
    4.450216     0.042420     0.136589
    1.912648     8.853236    -0.124984
    1.353663     0.113740     3.384194
  La  Ga   H
   4   2  24
Direct
    0.925350     0.992266     0.810153 
    0.896979     0.283615     0.045359 
    0.027173     0.691549     0.123955 
    0.240977     0.400696     0.351904 
    0.598763     0.503627     0.625378 
    0.471443     0.116910     0.525269 
    0.399305     0.318742     0.789684 
    0.083310     0.181376     0.469253 
    0.498540     0.190638     0.052590 
    0.284654     0.077845     0.000958 
    0.379647     0.998483     0.298282 
    0.741187     0.216546     0.634506 
    0.960490     0.078491     0.276677 
    0.067937     0.898992     0.278139 
    0.062255     0.482946     0.920995 
    0.242211     0.605005     0.546472 
    0.255219     0.914543     0.143025 
    0.430705     0.895620     0.781925 
    0.753530     0.915335     0.420472 
    0.575680     0.877906     0.276198 
    0.599836     0.837220     0.068917 
    0.191189     0.770550     0.533273 
    0.438289     0.729870     0.245463 
    0.782785     0.694281     0.742194 
    0.923133     0.582871     0.701071 
    0.546987     0.657398     0.103014 
    0.803410     0.791121     0.694731 
    0.527903     0.691223     0.622628 
    0.628107     0.509000     0.089297 
    0.416788     0.813545     0.682895 
EA93    4.478  5.679  5.505 73.21 84.41 98.72 Sym.group:    1
1.0
    4.474341     0.127973     0.137242
   -1.027891     5.580821     0.211577
    0.331980     1.478680     5.291934
  La  Ga   H
   4   2  24
Direct
    0.298410     0.059108     0.797499 
    0.320659     0.396830     0.147540 
    0.288053     0.723030     0.475897 
    0.741295     0.064092     0.125652 
    0.787136     0.917609     0.636467 
    0.736600     0.475150     0.726183 
    0.354859     0.438509     0.773578 
    0.981775     0.563154     0.260456 
    0.073927     0.047595     0.390316 
    0.185912     0.670658     0.876617 
    0.236416     0.021161     0.177620 
    0.816288     0.463650     0.031252 
    0.832223     0.753395     0.392879 
    0.078677     0.356988     0.835708 
    0.790318     0.187715     0.722320 
    0.475952     0.722740     0.833251 
    0.653647     0.619652     0.270720 
    0.682216     0.228938     0.429575 
    0.734925     0.675964     0.100551 
    0.908609     0.491093     0.433264 
    0.800211     0.332247     0.302094 
    0.407160     0.781389     0.077068 
    0.420099     0.095811     0.416193 
    0.500639     0.405711     0.489667 
    0.196956     0.344257     0.531635 
    0.125357     0.714818     0.103798 
    0.987125     0.817538     0.241763 
    0.040266     0.252230     0.524880 
    0.873009     0.811913     0.964332 
    0.007106     0.710920     0.794986 
EA94    3.916  4.012  8.350 90.03 89.92 89.98 Sym.group:    1
1.0
    3.915618     0.025302    -0.054643
   -0.024574     4.012087     0.011392
    0.128260    -0.027791     8.349135
  La  Ga   H
   4   2  24
Direct
    0.570164     0.756377     0.715962 
    0.920534     0.754703     0.283162 
    0.420379     0.242201     0.283240 
    0.069710     0.243270     0.715014 
    0.240734     0.863127     0.998799 
    0.740984     0.144822     0.998646 
    0.066983     0.743573     0.660796 
    0.427579     0.742484     0.336714 
    0.926933     0.254123     0.335821 
    0.565553     0.256531     0.658745 
    0.547660     0.275034     0.830962 
    0.947110     0.273061     0.164567 
    0.446180     0.725681     0.164517 
    0.047993     0.723788     0.832480 
    0.828373     0.177040     0.466032 
    0.659735     0.146720     0.522611 
    0.161227     0.848947     0.524204 
    0.329917     0.824766     0.467491 
    0.256727     0.199744     0.501307 
    0.764420     0.800386     0.502725 
    0.065260     0.404241     0.934542 
    0.432215     0.417632     0.065816 
    0.930710     0.590688     0.063652 
    0.558706     0.598007     0.935522 
    0.422496     0.440395     0.523703 
    0.081239     0.441856     0.476285 
    0.579209     0.555646     0.475149 
    0.919828     0.561606     0.522832 
    0.246488     0.353694     0.004732 
    0.746542     0.652028     0.999828 
EA95    4.046  4.873  4.072 112.14 110.79 98.98 Sym.group:    1
1.0
    4.037006    -0.249222     0.088226
   -0.466253     4.848508     0.153096
   -1.631279    -1.802576     3.267239
  La  Ga   H
   2   1  12
Direct
    0.555101     0.238988     0.263478 
    0.324395     0.552613     0.796528 
    0.907483     0.856725     0.494034 
    0.074226     0.118364     0.342034 
    0.277068     0.835899     0.271187 
    0.082905     0.860909     0.968290 
    0.826471     0.438151     0.930794 
    0.075891     0.407043     0.205835 
    0.407620     0.693156     0.367206 
    0.021781     0.207386     0.838920 
    0.844701     0.984240     0.017346 
    0.348342     0.922264     0.682283 
    0.865193     0.608944     0.882030 
    0.647203     0.951802     0.814930 
    0.575025     0.206222     0.750659 
EA96    3.750  3.744  5.001 75.97 75.23 89.23 Sym.group:    1
1.0
    3.748800     0.080471    -0.013501
   -0.028109     3.727555     0.349030
    1.275967     0.780649     4.771591
  La  Ga   H
   2   1  12
Direct
    0.548292     0.105441     0.785589 
    0.139735     0.871944     0.335386 
    0.690240     0.449797     0.187020 
    0.306474     0.575003     0.899434 
    0.964072     0.346669     0.418480 
    0.586194     0.641246     0.488104 
    0.306178     0.620992     0.722155 
    0.988835     0.221992     0.970382 
    0.264453     0.426508     0.141872 
    0.618123     0.015686     0.382950 
    0.773869     0.624781     0.704848 
    0.188045     0.318012     0.549914 
    0.959304     0.819564     0.970216 
    0.944722     0.507296     0.771646 
    0.067940     0.949288     0.735474 
EA97    4.974  3.122  4.978 74.86 105.41 72.53 Sym.group:    1
1.0
    4.963322     0.107163    -0.315410
    0.866881     2.996737    -0.124528
   -1.080800     1.854031     4.492065
  La  Ga   H
   2   1  12
Direct
    0.499012     0.662284     0.613064 
    0.743642     0.510758     0.200474 
    0.206649     0.421450     0.992706 
    0.836240     0.031078     0.956724 
    0.193695     0.352686     0.435505 
    0.281935     0.845990     0.175921 
    0.921494     0.604277     0.594315 
    0.137794     0.936356     0.748356 
    0.445527     0.284582     0.333298 
    0.115806     0.195561     0.577506 
    0.995129     0.776277     0.475833 
    0.417210     0.106490     0.844757 
    0.070478     0.824434     0.285771 
    0.783989     0.041360     0.638216 
    0.931883     0.256909     0.903708 
EA98    3.716  3.782  4.941 91.88 71.49 88.61 Sym.group:    1
1.0
    3.638383    -0.252633    -0.713722
    0.366780     3.763558     0.061332
    2.410309    -0.467775     4.287298
  La  Ga   H
   2   1  12
Direct
    0.533774     0.260397     0.046421 
    0.319520     0.607771     0.622421 
    0.980408     0.790104     0.215983 
    0.444774     0.095581     0.467960 
    0.932355     0.207747     0.247773 
    0.840694     0.333302     0.624076 
    0.035135     0.432118     0.002448 
    0.927780     0.411028     0.429624 
    0.114193     0.100989     0.823540 
    0.186740     0.090778     0.472482 
    0.605124     0.098425     0.610468 
    0.537053     0.776798     0.219267 
    0.750320     0.761080     0.837726 
    0.843942     0.863062     0.589398 
    0.422423     0.776430     0.968216 
EA99    5.259  3.785  3.597 89.87 109.87 100.93 Sym.group:    1
1.0
    4.107060    -0.082978    -3.283256
   -0.823881     3.694528     0.025996
    1.155649     0.242012     3.397204
  La  Ga   H
   2   1  12
Direct
    0.515347     0.994687     0.856963 
    0.076734     0.413538     0.134566 
    0.877929     0.846894     0.536497 
    0.706450     0.542330     0.771391 
    0.152781     0.171886     0.673704 
    0.472267     0.263457     0.334542 
    0.459155     0.471178     0.570708 
    0.359202     0.451877     0.777782 
    0.249316     0.960432     0.224557 
    0.928257     0.882470     0.063326 
    0.140146     0.644727     0.665506 
    0.704609     0.542589     0.123322 
    0.492927     0.745301     0.347383 
    0.469384     0.463510     0.111098 
    0.763134     0.250021     0.479533 
EA100   5.058  3.082  4.734 80.95 112.36 104.67 Sym.group:    1
1.0
    5.041006     0.408781     0.021389
   -1.018639     2.907451    -0.098168
   -1.848571     0.288986     4.348524
  La  Ga   H
   2   1  12
Direct
    0.799543     0.329717     0.163480 
    0.090494     0.586838     0.767852 
    0.347393     0.044706     0.324486 
    0.743886     0.008454     0.580124 
    0.730968     0.747921     0.407710 
    0.123153     0.122627     0.508000 
    0.532227     0.777289     0.903026 
    0.026876     0.971299     0.052928 
    0.620655     0.464665     0.572827 
    0.476900     0.683468     0.138250 
    0.243269     0.524419     0.421677 
    0.794041     0.966337     0.796485 
    0.460367     0.964613     0.723186 
    0.374040     0.195899     0.899812 
    0.570725     0.499421     0.710834 
EA101   4.024  3.755  4.465 95.32 96.99 79.92 Sym.group:    1
1.0
    4.022774    -0.071356    -0.082445
    0.719434     3.681306    -0.168463
   -0.454866    -0.130254     4.439821
  La  Ga   H
   2   1  12
Direct
    0.469925     0.778644     0.465116 
    0.714165     0.199480     0.077515 
    0.077639     0.378658     0.671742 
    0.616120     0.267879     0.607735 
    0.205843     0.940361     0.057821 
    0.187321     0.399590     0.079099 
    0.231773     0.298566     0.306324 
    0.511418     0.743753     0.968837 
    0.107695     0.762105     0.085960 
    0.383072     0.590152     0.847966 
    0.938437     0.976646     0.480731 
    0.963648     0.743154     0.392107 
    0.821427     0.701378     0.834753 
    0.825507     0.679904     0.153531 
    0.110147     0.958364     0.782566 
EA102   4.969  4.278  3.580 83.44 75.41 113.27 Sym.group:    1
1.0
    2.265748    -2.989688     3.259414
    1.634321     3.952372    -0.087542
   -1.252084     1.031392     3.191733
  La  Ga   H
   2   1  12
Direct
    0.769196     0.410612     0.452185 
    0.181182     0.119607     0.413282 
    0.634481     0.877922     0.084385 
    0.229113     0.640186     0.107297 
    0.242780     0.506773     0.951257 
    0.691262     0.869820     0.590375 
    0.333510     0.716086     0.519381 
    0.963619     0.268904     0.903912 
    0.132352     0.630797     0.676274 
    0.585570     0.495357     0.009768 
    0.365288     0.385349     0.793403 
    0.996907     0.881189     0.024797 
    0.376060     0.996069     0.828131 
    0.951009     0.643623     0.858397 
    0.598757     0.247921     0.032225 
EA103   3.650  3.777  5.026 98.74 105.99 89.59 Sym.group:    1
1.0
    3.646200    -0.054052    -0.147814
    0.091701     3.769798     0.220188
   -1.207160    -1.014869     4.772654
  La  Ga   H
   2   1  12
Direct
    0.078748     0.400008     0.783011 
    0.861079     0.961599     0.177717 
    0.452821     0.512503     0.386427 
    0.337360     0.184936     0.124051 
    0.296314     0.921297     0.894390 
    0.828362     0.847810     0.563153 
    0.980710     0.493254     0.359295 
    0.732922     0.930146     0.754576 
    0.567708     0.647567     0.768227 
    0.584212     0.124290     0.488959 
    0.594157     0.133296     0.810833 
    0.354723     0.750372     0.137726 
    0.333829     0.998140     0.535173 
    0.662668     0.431209     0.029867 
    0.186892     0.872263     0.605799 
EA104   3.578  4.423  4.910 111.22 104.89 103.53 Sym.group:    1
1.0
    3.574465     0.075198     0.141804
   -1.125020     4.277877    -0.022908
   -1.382795    -2.179381     4.177302
  La  Ga   H
   2   1  12
Direct
    0.900710     0.305106     0.426370 
    0.594634     0.979353     0.780216 
    0.337001     0.584784     0.104031 
    0.783745     0.514784     0.832490 
    0.081937     0.762274     0.368093 
    0.818252     0.813397     0.108162 
    0.941251     0.839426     0.490521 
    0.481955     0.520388     0.431901 
    0.059548     0.927256     0.118410 
    0.265515     0.146825     0.101191 
    0.174146     0.202647     0.775316 
    0.751360     0.466824     0.101554 
    0.054673     0.760341     0.806538 
    0.347054     0.096119     0.431031 
    0.532745     0.430489     0.704228 
EA105   3.619  5.172  3.870 109.08 90.86 104.95 Sym.group:    1
1.0
    3.610374    -0.148921     0.197172
   -1.124385     5.047244    -0.089072
   -0.310442    -1.301079     3.631336
  La  Ga   H
   2   1  12
Direct
    0.455264     0.044479     0.316201 
    0.021832     0.673616     0.642757 
    0.020361     0.248168     0.912915 
    0.791377     0.752869     0.147388 
    0.679203     0.367412     0.788979 
    0.534146     0.713343     0.454870 
    0.624397     0.396247     0.171245 
    0.375165     0.112391     0.845444 
    0.933384     0.981919     0.461426 
    0.401384     0.431353     0.696127 
    0.482733     0.500197     0.312493 
    0.051795     0.265397     0.349045 
    0.569576     0.670621     0.975434 
    0.650088     0.928812     0.799419 
    0.179300     0.605718     0.112229 
EA106   3.862  3.719  4.675 77.46 82.78 89.12 Sym.group:    1
1.0
    3.852443    -0.277829    -0.011274
    0.323733     3.701686    -0.149582
    0.684751     1.140641     4.481937
  La  Ga   H
   2   1  12
Direct
    0.355427     0.194007     0.325576 
    0.920131     0.979719     0.900795 
    0.466512     0.571698     0.740182 
    0.148683     0.659240     0.500719 
    0.726436     0.450514     0.024714 
    0.107086     0.686690     0.283218 
    0.925582     0.528310     0.674146 
    0.594624     0.694747     0.294396 
    0.392840     0.773521     0.070517 
    0.852692     0.049281     0.370986 
    0.765716     0.831214     0.438244 
    0.874804     0.483577     0.246493 
    0.099831     0.458999     0.973637 
    0.440751     0.118726     0.770901 
    0.824931     0.328301     0.496168 
EA107   4.910  3.740  4.301 64.23 110.49 90.00 Sym.group:    8
1.0
    3.230590    -1.264478    -3.475187
    1.372769     3.479415     0.010182
    2.042983     1.193944     3.592049
  La  Ga   H
   2   1  12
Direct
    0.245228     0.041928     0.343720 
    0.615357     0.586007     0.255597 
    0.938487     0.811441     0.804594 
    0.110654     0.515600     0.396387 
    0.581802     0.098455     0.738776 
    0.581776     0.590321     0.738798 
    0.864851     0.384213     0.097356 
    0.100857     0.409469     0.608574 
    0.864880     0.945980     0.097295 
    0.519932     0.335432     0.756596 
    0.536465     0.175297     0.077021 
    0.822383     0.037665     0.352291 
    0.251088     0.038008     0.854568 
    0.251139     0.534996     0.854578 
    0.923917     0.318603     0.790363 
EA108   3.810  5.165  3.765 107.62 88.90 69.88 Sym.group:    1
1.0
    3.808698    -0.012962    -0.091707
    1.795117     4.843235     0.045611
    0.152821    -1.305570     3.528289
  La  Ga   H
   2   1  12
Direct
    0.574451     0.262307     0.304736 
    0.979641     0.477086     0.939529 
    0.311785     0.846308     0.870046 
    0.116025     0.666769     0.534452 
    0.530051     0.370664     0.846454 
    0.007408     0.402413     0.408122 
    0.393629     0.049770     0.601855 
    0.132475     0.135725     0.233872 
    0.687445     0.642833     0.526112 
    0.836850     0.079807     0.727430 
    0.904332     0.857972     0.333411 
    0.033021     0.052535     0.553676 
    0.674317     0.860009     0.385893 
    0.378591     0.687833     0.216861 
    0.771916     0.882997     0.875664 
EA109   3.724  3.725  5.324 69.86 110.06 89.48 Sym.group:    1
1.0
    3.724433     0.013178    -0.007695
    0.020395     3.725136     0.014625
   -1.823021     1.824617     4.657588
  La  Ga   H
   2   1  12
Direct
    0.815232     0.188770     0.625485 
    0.183109     0.819193     0.368643 
    0.490280     0.501786     0.997089 
    0.289412     0.371764     0.259682 
    0.702793     0.634221     0.737597 
    0.029856     0.630725     0.739601 
    0.958859     0.378300     0.251502 
    0.372496     0.968256     0.739806 
    0.628288     0.709378     0.257176 
    0.624333     0.038099     0.254141 
    0.368747     0.296709     0.737153 
    0.985871     0.249474     0.997231 
    0.988076     0.758465     0.996938 
    0.753886     0.998708     0.997104 
    0.245576     0.999301     0.997034 
EA110   5.104  4.853  3.252 71.19 87.99 117.33 Sym.group:    1
1.0
    2.645056    -4.362819     0.151265
    1.850365     3.811000     2.367080
   -0.565967    -0.365996     3.181102
  La  Ga   H
   2   1  12
Direct
    0.302934     0.658069     0.434291 
    0.691588     0.326280     0.808860 
    0.012561     0.967679     0.905626 
    0.319716     0.923942     0.804818 
    0.068293     0.353270     0.091283 
    0.606656     0.850891     0.797870 
    0.922966     0.577197     0.175677 
    0.465453     0.379694     0.290269 
    0.681256     0.051996     0.450228 
    0.388465     0.140666     0.416988 
    0.968508     0.207534     0.431574 
    0.547793     0.612059     0.962820 
    0.745305     0.873733     0.298533 
    0.006200     0.840671     0.494434 
    0.293029     0.279660     0.961107 
EA111   4.942  3.963  3.876 69.65 104.59 80.63 Sym.group:    1
1.0
    4.931006    -0.014400     0.333885
    0.666259     3.904659    -0.120926
   -1.196059     1.674056     3.285192
  La  Ga   H
   2   1  12
Direct
    0.492923     0.026870     0.319124 
    0.947042     0.498689     0.330763 
    0.176203     0.797191     0.807823 
    0.857334     0.648058     0.746005 
    0.344166     0.165354     0.722850 
    0.602745     0.445764     0.515947 
    0.349059     0.573034     0.284471 
    0.657893     0.427995     0.889997 
    0.683866     0.988972     0.871839 
    0.775681     0.212263     0.037045 
    0.810366     0.088810     0.738590 
    0.068783     0.248161     0.946529 
    0.349161     0.440482     0.723378 
    0.556887     0.736093     0.922784 
    0.053087     0.984872     0.312832 
EA112   3.664  3.643  5.130 86.08 89.25 90.05 Sym.group:    1
1.0
    3.663888     0.012295     0.043942
   -0.016974     3.640631     0.120199
    0.005024     0.181674     5.126951
  La  Ga   H
   2   1  12
Direct
    0.541599     0.517010     0.999404 
    0.005409     0.012145     0.497999 
    0.052804     0.008868     0.997124 
    0.681552     0.455835     0.595749 
    0.456809     0.687908     0.403643 
    0.523254     0.009512     0.237441 
    0.048409     0.507821     0.758714 
    0.697036     0.033801     0.835733 
    0.012124     0.665593     0.195585 
    0.035479     0.352767     0.158363 
    0.377631     0.043447     0.798480 
    0.285841     0.517838     0.385443 
    0.498034     0.291790     0.609917 
    0.509186     0.791052     0.613530 
    0.780959     0.532911     0.375700 
EA113   3.645  4.273  4.768 101.05 91.29 65.62 Sym.group:    1
1.0
    3.644401    -0.035367    -0.048421
    1.796879     3.859511    -0.365823
   -0.049440    -0.539953     4.737027
  La  Ga   H
   2   1  12
Direct
    0.017094     0.424642     0.693010 
    0.432988     0.575387     0.324633 
    0.993509     0.006005     0.010273 
    0.871938     0.683872     0.134860 
    0.438308     0.623990     0.891629 
    0.568963     0.319365     0.875566 
    0.033442     0.393017     0.131822 
    0.757502     0.002502     0.505656 
    0.509745     0.022980     0.486962 
    0.570860     0.908955     0.130745 
    0.472146     0.878479     0.760761 
    0.508303     0.058916     0.842138 
    0.374390     0.102357     0.224905 
    0.027568     0.911111     0.649043 
    0.939705     0.087973     0.361374 
EA114   4.322  3.501  4.623 95.68 72.05 95.16 Sym.group:    1
1.0
    2.938417    -3.153487     0.313691
    2.202584     2.347052    -1.377466
    1.789510     0.138414     4.259889
  La  Ga   H
   2   1  12
Direct
    0.902062     0.074479     0.999915 
    0.104326     0.627931     0.366236 
    0.510303     0.070734     0.641527 
    0.867714     0.540041     0.809905 
    0.355914     0.402608     0.921558 
    0.675921     0.624376     0.769712 
    0.593684     0.545777     0.545075 
    0.531163     0.877467     0.306622 
    0.896334     0.128604     0.538982 
    0.492694     0.323153     0.229620 
    0.476589     0.782817     0.965676 
    0.306844     0.120139     0.170101 
    0.613149     0.548193     0.185111 
    0.218634     0.650426     0.774827 
    0.174774     0.173347     0.567325 
EA115   3.757  4.375  4.950 115.86 111.29 90.43 Sym.group:    1
1.0
    3.757342     0.001905     0.014064
   -0.035209     4.374938    -0.056097
   -1.811607    -2.121023     4.089066
  La  Ga   H
   2   1  12
Direct
    0.883695     0.332697     0.655874 
    0.230025     0.673020     0.344674 
    0.327977     0.005454     0.002153 
    0.735572     0.539500     0.350688 
    0.386127     0.472823     0.654577 
    0.737612     0.822289     0.348721 
    0.380433     0.183751     0.647733 
    0.862965     0.211000     0.206524 
    0.657619     0.791703     0.786542 
    0.863270     0.994685     0.210386 
    0.662490     0.995220     0.780624 
    0.936243     0.810884     0.003091 
    0.933980     0.196436     0.001858 
    0.548221     0.402870     0.998668 
    0.543807     0.598165     0.996468 
EA116   3.639  4.456  4.137 83.30 92.35 99.65 Sym.group:    1
1.0
    3.620272    -0.081972    -0.357490
   -0.666172     4.403077    -0.153248
    0.246820     0.667578     4.074959
  La  Ga   H
   2   1  12
Direct
    0.627551     0.594658     0.006797 
    0.453443     0.022426     0.418291 
    0.053964     0.449340     0.542700 
    0.102826     0.752790     0.728798 
    0.982579     0.250540     0.215078 
    0.151294     0.682498     0.173154 
    0.925791     0.905077     0.304447 
    0.302263     0.131202     0.907047 
    0.209187     0.937537     0.960330 
    0.755880     0.091610     0.000218 
    0.849505     0.036301     0.828442 
    0.087701     0.369267     0.957399 
    0.974678     0.040791     0.621778 
    0.535636     0.546715     0.497880 
    0.612752     0.290317     0.734850 
EA117   3.709  5.239  3.741 71.65 90.60 106.15 Sym.group:    1
1.0
    1.655018    -1.961943    -2.677015
    3.825043     2.545650     2.517553
    1.418686    -2.281764     2.603259
  La  Ga   H
   2   1  12
Direct
    0.457826     0.970154     0.550484 
    0.007739     0.464227     0.985807 
    0.946645     0.930429     0.053487 
    0.532979     0.539020     0.702427 
    0.336654     0.789471     0.143496 
    0.763689     0.375240     0.531191 
    0.296437     0.351512     0.474261 
    0.284584     0.588435     0.446866 
    0.016538     0.103681     0.368459 
    0.486617     0.402728     0.275067 
    0.426718     0.280858     0.864995 
    0.610714     0.109329     0.986522 
    0.583585     0.651572     0.004989 
    0.827046     0.702294     0.496193 
    0.956926     0.271129     0.587514 
EA118   3.050  7.972  2.764 80.08 81.71 92.32 Sym.group:    1
1.0
    3.038844    -0.061871     0.250619
   -0.223629     7.934904     0.738772
    0.177738     0.227362     2.748431
  La  Ga   H
   2   1  12
Direct
    0.504055     0.673251     0.553828 
    0.472425     0.324493     0.606567 
    0.497768     0.011363     0.402015 
    0.997320     0.385291     0.091287 
    0.019698     0.517659     0.261287 
    0.980318     0.638132     0.042676 
    0.975055     0.496174     0.671590 
    0.173142     0.045008     0.939956 
    0.726053     0.887763     0.973183 
    0.249061     0.835461     0.996205 
    0.800165     0.169016     0.023845 
    0.942853     0.141961     0.642596 
    0.975246     0.856500     0.678994 
    0.067854     0.850937     0.291026 
    0.064379     0.191361     0.292649 
EA119   4.971  4.978  3.037 89.65 90.25 119.71 Sym.group:  164
1.0
   -2.527083     4.281128     0.024281
   -2.468950    -4.322519    -0.052616
   -0.022512    -0.045681     3.036578
  La  Ga   H
   2   1  12
Direct
    0.331859     0.664914     0.917764 
    0.998546     0.998433     0.628973 
    0.665676     0.331890     0.773382 
    0.316969     0.041440     0.127943 
    0.954582     0.274268     0.127954 
    0.723215     0.674546     0.129465 
    0.606133     0.984517     0.414295 
    0.014381     0.622206     0.417140 
    0.378262     0.388349     0.419414 
    0.377900     0.986549     0.418339 
    0.009222     0.389687     0.417237 
    0.608163     0.622205     0.419762 
    0.721951     0.043475     0.126720 
    0.955706     0.681420     0.131540 
    0.321085     0.273782     0.130722 
EA120   3.725  3.786  5.266 111.03 71.30 89.77 Sym.group:    1
1.0
    3.724087    -0.024345    -0.059466
    0.040468     3.785284     0.029664
    1.749334    -1.944733     4.570771
  La  Ga   H
   2   1  12
Direct
    0.764761     0.112122     0.297062 
    0.196936     0.884192     0.730361 
    0.578450     0.484892     0.936772 
    0.326395     0.199917     0.132622 
    0.018785     0.508948     0.959690 
    0.611120     0.929991     0.929948 
    0.027924     0.550001     0.189635 
    0.539027     0.608084     0.306082 
    0.745756     0.051894     0.657951 
    0.955226     0.646476     0.377500 
    0.759968     0.607450     0.614422 
    0.344382     0.364135     0.684277 
    0.253687     0.897249     0.319364 
    0.131098     0.301932     0.544210 
    0.242099     0.370473     0.349390 
EA121   3.753  3.811  5.039 99.87 107.68 101.70 Sym.group:    1
1.0
    3.752741     0.052667     0.017758
   -0.824883     3.719787    -0.082087
   -1.536565    -1.122270     4.665740
  La  Ga   H
   2   1  12
Direct
    0.343026     0.682178     0.001730 
    0.888124     0.362529     0.273724 
    0.797905     0.958755     0.702500 
    0.753975     0.554832     0.856277 
    0.842065     0.381417     0.657493 
    0.277758     0.914986     0.442236 
    0.478335     0.542185     0.410062 
    0.183245     0.798784     0.615752 
    0.383780     0.081876     0.369403 
    0.483761     0.147107     0.841546 
    0.269688     0.278190     0.643469 
    0.413738     0.432601     0.589118 
    0.813773     0.882078     0.377712 
    0.930871     0.856896     0.124301 
    0.240383     0.169128     0.069123 
EA122   4.683  3.606  4.710 71.38 119.04 93.00 Sym.group:    1
1.0
    2.497879     0.593050     3.917108
   -1.234757     3.387559     0.048753
   -4.700101    -0.116410     0.280898
  La  Ga   H
   2   1  12
Direct
    0.132633     0.156161     0.312429 
    0.857176     0.727661     0.703084 
    0.487040     0.952704     0.028549 
    0.470573     0.764728     0.755427 
    0.874574     0.700464     0.179432 
    0.183359     0.503557     0.607259 
    0.656316     0.403835     0.972169 
    0.347052     0.455334     0.030870 
    0.653720     0.284901     0.298041 
    0.082724     0.178604     0.831336 
    0.858118     0.332915     0.470418 
    0.351901     0.559759     0.577456 
    0.576184     0.315668     0.528714 
    0.682792     0.189430     0.769423 
    0.302548     0.695668     0.251865 
EA123   5.403  3.750  3.766 60.24 94.80 90.98 Sym.group:    1
1.0
    5.395295     0.289406    -0.000955
   -0.264673     3.739955    -0.082765
   -0.417777     1.915826     3.214996
  La  Ga   H
   2   1  12
Direct
    0.930047     0.223074     0.966256 
    0.321453     0.575843     0.250723 
    0.651298     0.904162     0.584644 
    0.818870     0.656487     0.090937 
    0.616513     0.902411     0.071468 
    0.577564     0.397362     0.010348 
    0.929778     0.556781     0.333480 
    0.247869     0.538579     0.756962 
    0.665430     0.405580     0.501150 
    0.505075     0.230228     0.922041 
    0.236200     0.097542     0.749028 
    0.276263     0.086622     0.225636 
    0.359082     0.923320     0.615311 
    0.984405     0.946813     0.612638 
    0.106121     0.776927     0.582063 
EA124   5.088  5.312  2.862 74.60 90.06 61.41 Sym.group:   71
1.0
    5.087637     0.030458     0.023670
    2.511607     4.641175     0.605000
   -0.019167     0.512883     2.815303
  La  Ga   H
   2   1  12
Direct
    0.017932     0.963239     0.250382 
    0.316050     0.366600     0.548017 
    0.666915     0.665124     0.893177 
    0.019590     0.665085     0.898858 
    0.309879     0.986898     0.737515 
    0.763274     0.294020     0.587014 
    0.632031     0.343162     0.062722 
    0.849403     0.665512     0.394372 
    0.392940     0.035298     0.211356 
    0.023526     0.343261     0.060994 
    0.570970     0.035285     0.211819 
    0.484212     0.665009     0.394904 
    0.314460     0.664636     0.899404 
    0.941360     0.294036     0.586533 
    0.702186     0.987197     0.737057 
EA125   3.521  3.418  6.257 93.72 91.22 117.09 Sym.group:    1
1.0
    3.519994     0.098226    -0.005965
   -1.640663     2.996983    -0.088658
   -0.113252    -0.340650     6.246196
  La  Ga   H
   2   1  12
Direct
    0.034337     0.016663     0.787175 
    0.976873     0.919279     0.211981 
    0.646390     0.302834     0.500442 
    0.665863     0.809406     0.495993 
    0.172634     0.783766     0.498305 
    0.162036     0.321838     0.503483 
    0.438032     0.811309     0.943811 
    0.001065     0.464787     0.999646 
    0.378188     0.668363     0.724744 
    0.408247     0.444233     0.061093 
    0.537691     0.043864     0.023429 
    0.342181     0.607262     0.271400 
    0.673733     0.342461     0.762768 
    0.629655     0.265282     0.240850 
    0.594893     0.483174     0.955423 
EA126   3.726  3.725  5.328 70.12 110.35 89.33 Sym.group:    1
1.0
    3.725670     0.015984    -0.002784
    0.027277     3.724857     0.018361
   -1.857128     1.802247     4.657107
  La  Ga   H
   2   1  12
Direct
    0.201576     0.801279     0.409099 
    0.828973     0.164776     0.664695 
    0.520255     0.478413     0.036824 
    0.052944     0.604593     0.779997 
    0.725670     0.608644     0.778245 
    0.391908     0.943155     0.786391 
    0.382809     0.274501     0.772146 
    0.982819     0.359378     0.296429 
    0.307230     0.357880     0.292496 
    0.640181     0.018039     0.288739 
    0.648230     0.688346     0.300282 
    0.773715     0.955877     0.036675 
    0.258252     0.996670     0.037228 
    0.007854     0.226957     0.036284 
    0.035461     0.740284     0.037601 
EA127   2.898  3.103  8.165 89.90 89.98 62.85 Sym.group:    1
1.0
    1.417730    -2.526942     0.030095
    3.100834     0.116116     0.011618
   -0.019548     0.083506     8.164331
  La  Ga   H
   2   1  12
Direct
    0.000703     0.005927     0.833849 
    0.002972     0.001008     0.160098 
    0.999292     0.002835     0.494874 
    0.991290     0.505479     0.545384 
    0.495996     0.005171     0.623476 
    0.498816     0.505137     0.656731 
    0.491561     0.497061     0.470082 
    0.001512     0.497923     0.338073 
    0.499446     0.998772     0.366498 
    0.674666     0.654935     0.997221 
    0.328964     0.351742     0.997671 
    0.654815     0.596875     0.299141 
    0.261399     0.402642     0.698456 
    0.726188     0.619996     0.704298 
    0.349792     0.398373     0.294692 
EA128   4.381  4.394  4.411 112.38 76.82 68.36 Sym.group:    1
1.0
    4.380812     0.009908    -0.050826
    1.611065     4.088011    -0.056854
    1.053928    -2.169378     3.693579
  La  Ga   H
   2   1  12
Direct
    0.237852     0.502896     0.254338 
    0.741045     0.506885     0.761935 
    0.493900     0.003824     0.503837 
    0.221852     0.006406     0.250073 
    0.753111     0.004001     0.774216 
    0.755057     0.473482     0.243004 
    0.238697     0.516301     0.758831 
    0.972850     0.993375     0.772880 
    0.223547     0.992434     0.025779 
    0.045226     0.755384     0.957542 
    0.784418     0.248406     0.213295 
    0.100070     0.240309     0.894877 
    0.350937     0.748319     0.647979 
    0.643146     0.009255     0.107680 
    0.893186     0.005093     0.357447 
EA129   4.470  4.407  4.467 61.81 61.77 61.82 Sym.group:    1
1.0
    4.454182     0.303705     0.218057
    1.801391     4.012438     0.273031
    1.847115     1.224299     3.878550
  La  Ga   H
   2   1  12
Direct
    0.623664     0.615878     0.626794 
    0.378315     0.375363     0.380744 
    0.000548     0.994667     0.001414 
    0.307599     0.950730     0.309289 
    0.303442     0.295252     0.974299 
    0.966428     0.292495     0.310369 
    0.695089     0.031862     0.699121 
    0.695897     0.695352     0.042796 
    0.033004     0.693630     0.702794 
    0.068239     0.545585     0.082658 
    0.072529     0.062191     0.560846 
    0.562357     0.073450     0.064398 
    0.933370     0.442555     0.926639 
    0.932204     0.928145     0.434606 
    0.437908     0.933466     0.928416 
EA130   4.212  4.213  4.744 63.92 115.73 89.58 Sym.group:    5
1.0
    4.211883     0.013232     0.005959
    0.017572     4.212976     0.008948
   -2.071431     2.085870     3.723034
  La  Ga   H
   2   1  12
Direct
    0.755432     0.750177     0.500744 
    0.256438     0.251180     0.500529 
    0.505464     0.500894     0.000887 
    0.110370     0.319865     0.994805 
    0.897202     0.684121     0.999231 
    0.687172     0.893625     0.001526 
    0.323368     0.104431     0.007295 
    0.109313     0.686350     0.996926 
    0.899208     0.318692     0.998732 
    0.687281     0.107577     0.001270 
    0.323218     0.893134     0.006012 
    0.137476     0.777623     0.263279 
    0.121431     0.965035     0.260805 
    0.967274     0.125854     0.738404 
    0.781049     0.132201     0.738591 
EA131   5.269  4.528  5.814 90.87 75.16 103.52 Sym.group:    1
1.0
    5.266204    -0.153404    -0.033566
   -0.928174     4.423686     0.260789
    1.522551    -0.101983     5.609681
  La  Ga   H
   4   2  24
Direct
    0.494482     0.820471     0.391348 
    0.868448     0.274988     0.041534 
    0.488035     0.819155     0.913657 
    0.869132     0.285831     0.563369 
    0.340575     0.273169     0.176605 
    0.014918     0.817700     0.765033 
    0.624202     0.560845     0.111412 
    0.926369     0.985699     0.288664 
    0.096322     0.890038     0.082873 
    0.897031     0.709628     0.328936 
    0.142866     0.994859     0.443613 
    0.095374     0.701957     0.448720 
    0.218712     0.850637     0.222086 
    0.776500     0.555779     0.325532 
    0.647222     0.450890     0.854414 
    0.264324     0.411099     0.526457 
    0.134099     0.486601     0.251054 
    0.572410     0.301334     0.370127 
    0.464890     0.447927     0.612852 
    0.781833     0.811037     0.591519 
    0.237505     0.150551     0.503850 
    0.210608     0.587704     0.727994 
    0.091886     0.668613     0.057386 
    0.140701     0.219271     0.745159 
    0.269349     0.407209     0.906150 
    0.187951     0.062502     0.961855 
    0.795075     0.784331     0.065372 
    0.608326     0.568190     0.622048 
    0.482437     0.254486     0.802544 
    0.428712     0.128292     0.680496 
EA132   5.468  5.195  5.592 96.43 67.40 116.71 Sym.group:    1
1.0
    5.459228     0.106591     0.284771
   -2.410596     4.589761    -0.338199
    1.866681     0.657222     5.229975
  La  Ga   H
   4   2  24
Direct
    0.653013     0.058942     0.234810 
    0.380682     0.350643     0.134060 
    0.220755     0.699535     0.808004 
    0.939805     0.013967     0.729486 
    0.885509     0.725321     0.293464 
    0.773734     0.396122     0.623148 
    0.513791     0.749257     0.978271 
    0.961369     0.094621     0.372076 
    0.501577     0.649455     0.390264 
    0.067854     0.999179     0.027973 
    0.242052     0.028493     0.400630 
    0.013251     0.445935     0.254709 
    0.274823     0.695272     0.218520 
    0.571160     0.377561     0.435392 
    0.078428     0.308741     0.987353 
    0.823604     0.464457     0.090049 
    0.129824     0.407998     0.517647 
    0.648479     0.814008     0.555809 
    0.272820     0.906098     0.135865 
    0.371043     0.069335     0.585212 
    0.801269     0.338913     0.900150 
    0.582319     0.593554     0.760983 
    0.646297     0.025538     0.601656 
    0.780725     0.684516     0.982357 
    0.333341     0.360574     0.735923 
    0.337091     0.389273     0.572839 
    0.508104     0.038125     0.923548 
    0.066314     0.727866     0.514031 
    0.286953     0.663879     0.377999 
    0.351445     0.146633     0.789067 
EA133   4.843  4.895  6.407 85.18 89.29 119.14 Sym.group:    1
1.0
    4.843356     0.019332     0.019107
   -2.401287     4.260189     0.210004
    0.052522     0.332374     6.398332
  La  Ga   H
   4   2  24
Direct
    0.656716     0.018720     0.509059 
    0.008977     0.672830     0.513622 
    0.353764     0.373095     0.485410 
    0.001535     0.985093     0.009577 
    0.368832     0.654078     0.863187 
    0.680222     0.322884     0.128014 
    0.455503     0.538791     0.166866 
    0.343630     0.839677     0.054712 
    0.043348     0.426218     0.030347 
    0.897245     0.508811     0.836418 
    0.634406     0.552865     0.933609 
    0.469409     0.128714     0.949875 
    0.016632     0.149520     0.285211 
    0.849469     0.864445     0.306988 
    0.318196     0.043347     0.278632 
    0.908625     0.911946     0.709760 
    0.283180     0.956600     0.721968 
    0.007461     0.192123     0.715539 
    0.962624     0.696225     0.804700 
    0.304375     0.312018     0.794374 
    0.662866     0.013661     0.835451 
    0.226782     0.358145     0.182362 
    0.645372     0.984158     0.186392 
    0.911597     0.633001     0.224253 
    0.596312     0.733975     0.228763 
    0.252972     0.756034     0.199854 
    0.177673     0.559226     0.270491 
    0.898091     0.281704     0.775047 
    0.649621     0.354281     0.706367 
    0.451640     0.209575     0.804509 
EA134   5.170  5.290  5.241 82.92 99.37 99.86 Sym.group:    1
1.0
    5.139300    -0.410589    -0.387940
   -0.467606     5.259765     0.314899
   -0.440832     0.298315     5.213677
  La  Ga   H
   4   2  24
Direct
    0.258231     0.252577     0.247900 
    0.245959     0.756703     0.750611 
    0.750877     0.251984     0.739866 
    0.748011     0.743948     0.250446 
    0.467933     0.541723     0.549734 
    0.021004     0.965557     0.958877 
    0.666565     0.109255     0.331348 
    0.630441     0.882181     0.581742 
    0.363788     0.125125     0.620041 
    0.386559     0.871650     0.342935 
    0.120820     0.349830     0.589482 
    0.123884     0.597440     0.341190 
    0.908368     0.375320     0.363051 
    0.857711     0.634098     0.629981 
    0.365366     0.621230     0.117190 
    0.391418     0.346310     0.869969 
    0.645687     0.602270     0.871441 
    0.650373     0.357090     0.097662 
    0.376623     0.905079     0.154713 
    0.379879     0.153599     0.904345 
    0.638145     0.872039     0.871195 
    0.596400     0.121326     0.129104 
    0.859432     0.135995     0.392731 
    0.851429     0.897683     0.627897 
    0.110594     0.155084     0.626292 
    0.131997     0.884367     0.377779 
    0.135584     0.380923     0.877056 
    0.109068     0.628804     0.153246 
    0.840876     0.387782     0.158524 
    0.863621     0.619799     0.913035 
EA135   4.469  4.499  7.700 90.18 88.39 60.77 Sym.group:    1
1.0
   -2.247630     3.862521     0.031537
   -4.498544    -0.075624     0.013166
    0.043183     0.212532     7.697243
  La  Ga   H
   4   2  24
Direct
    0.665873     0.667040     0.166701 
    0.333327     0.329866     0.168119 
    0.343574     0.320715     0.832491 
    0.680490     0.656848     0.831187 
    0.658074     0.668473     0.498990 
    0.321070     0.346893     0.500885 
    0.765750     0.004596     0.501643 
    0.992701     0.798310     0.504060 
    0.201854     0.792285     0.493371 
    0.212254     0.005189     0.497568 
    0.991241     0.217499     0.503683 
    0.793671     0.205598     0.497692 
    0.014122     0.224081     0.697490 
    0.777330     0.220924     0.684559 
    0.794897     0.996096     0.700172 
    0.019558     0.743981     0.688365 
    0.234987     0.771097     0.703179 
    0.254329     0.981885     0.688581 
    0.988449     0.771182     0.310272 
    0.211719     0.783488     0.294981 
    0.224353     0.007898     0.312149 
    0.990076     0.228917     0.299909 
    0.741236     0.256047     0.317444 
    0.769245     0.003414     0.299779 
    0.743728     0.252325     0.995749 
    0.759264     0.995283     0.996735 
    0.003840     0.741154     0.999487 
    0.262572     0.739330     0.998938 
    0.244633     0.993350     0.002716 
    0.007642     0.246440     0.001839 
EA136   5.149  5.100  5.149 89.16 86.31 77.93 Sym.group:    1
1.0
    5.143309     0.191063     0.130236
    0.882525     5.022828    -0.046322
    0.198196     0.089194     5.144227
  La  Ga   H
   4   2  24
Direct
    0.956733     0.345613     0.702775 
    0.978939     0.915634     0.294360 
    0.323191     0.416645     0.068266 
    0.618024     0.856691     0.929237 
    0.494366     0.212484     0.526152 
    0.531592     0.721913     0.458175 
    0.023603     0.929772     0.710285 
    0.009618     0.515730     0.344428 
    0.315601     0.127137     0.784286 
    0.726422     0.434033     0.047210 
    0.218934     0.187799     0.380140 
    0.856506     0.726743     0.603376 
    0.639445     0.234688     0.861273 
    0.355503     0.783702     0.205668 
    0.630153     0.152435     0.203416 
    0.259298     0.695022     0.776807 
    0.754817     0.330895     0.381405 
    0.158726     0.635399     0.683800 
    0.700760     0.546054     0.195011 
    0.206033     0.042073     0.983163 
    0.958107     0.363349     0.268666 
    0.189887     0.943757     0.622777 
    0.978582     0.648326     0.981097 
    0.975991     0.261825     0.089558 
    0.223459     0.827160     0.949403 
    0.933279     0.022646     0.920029 
    0.318335     0.040642     0.183233 
    0.543570     0.516505     0.723433 
    0.782048     0.024484     0.626932 
    0.267606     0.531480     0.460319 
EA137   5.708  4.732  4.907 87.71 87.41 90.94 Sym.group:    1
1.0
    5.707019    -0.031989     0.114264
   -0.052325     4.731584     0.070375
    0.124156     0.124174     4.904171
  La  Ga   H
   4   2  24
Direct
    0.399829     0.010642     0.251223 
    0.591629     0.986568     0.741710 
    0.096980     0.451198     0.736329 
    0.898094     0.514930     0.236121 
    0.456418     0.517995     0.088257 
    0.008491     0.962045     0.515843 
    0.359439     0.706185     0.601060 
    0.272595     0.100449     0.625450 
    0.732349     0.904989     0.374889 
    0.613080     0.291974     0.417153 
    0.204487     0.669357     0.380584 
    0.153286     0.272655     0.364263 
    0.822643     0.686444     0.650651 
    0.835331     0.242567     0.557725 
    0.147398     0.880509     0.896963 
    0.158152     0.261690     0.096638 
    0.738888     0.575258     0.869062 
    0.852493     0.194895     0.955590 
    0.216224     0.727982     0.010649 
    0.406279     0.311389     0.837352 
    0.703474     0.826035     0.089795 
    0.676586     0.246420     0.050816 
    0.371451     0.382572     0.456458 
    0.444620     0.566174     0.674665 
    0.661522     0.494110     0.565370 
    0.596736     0.659638     0.412155 
    0.222151     0.097753     0.920257 
    0.019279     0.953213     0.169946 
    0.947683     0.030353     0.864828 
    0.834921     0.930859     0.093995 
EA138   5.592  5.212  5.174 89.98 90.49 117.74 Sym.group:    1
1.0
    3.120026    -4.640432    -0.063318
    2.474512     4.587311     0.040953
   -0.022156    -0.031732     5.174161
  La  Ga   H
   4   2  24
Direct
    0.760157     0.501554     0.760928 
    0.745448     0.501407     0.259237 
    0.250145     0.500452     0.256149 
    0.259768     0.498718     0.754755 
    0.998211     0.998373     0.496851 
    0.499274     0.997544     0.010136 
    0.869636     0.184521     0.677574 
    0.341296     0.160415     0.320277 
    0.654713     0.838945     0.307034 
    0.143818     0.817867     0.683926 
    0.646501     0.827192     0.806062 
    0.155204     0.831127     0.188445 
    0.843692     0.167037     0.177802 
    0.369117     0.178576     0.820945 
    0.119258     0.973375     0.989346 
    0.877499     0.053904     0.022348 
    0.356747     0.012930     0.484512 
    0.650266     0.017029     0.500490 
    0.626072     0.774482     0.117041 
    0.150963     0.817515     0.860684 
    0.853492     0.162709     0.846512 
    0.368666     0.210876     0.141696 
    0.872984     0.213038     0.353012 
    0.354633     0.169537     0.650357 
    0.641974     0.811360     0.627314 
    0.123942     0.781671     0.363986 
    0.868218     0.849615     0.006990 
    0.136446     0.152932     0.997421 
    0.616688     0.158343     0.502999 
    0.374769     0.849040     0.507983 
EA139   5.478  5.302  5.669 65.67 62.60 88.90 Sym.group:    1
1.0
    5.476961     0.055290    -0.074043
    0.045603     5.297623    -0.218199
    2.642428     2.494142     4.351131
  La  Ga   H
   4   2  24
Direct
    0.500190     0.198700     0.072164 
    0.383118     0.672631     0.128147 
    0.928489     0.642938     0.611271 
    0.434827     0.771140     0.592377 
    0.049225     0.032200     0.941666 
    0.854767     0.249795     0.400450 
    0.142700     0.966443     0.197111 
    0.694825     0.871271     0.164525 
    0.667278     0.910952     0.703452 
    0.640291     0.396831     0.624645 
    0.130779     0.318467     0.516067 
    0.053478     0.679288     0.973192 
    0.858845     0.180284     0.733834 
    0.428938     0.055284     0.775878 
    0.943072     0.625133     0.245119 
    0.910011     0.304616     0.991167 
    0.391809     0.326539     0.732526 
    0.809690     0.907376     0.825289 
    0.826064     0.977528     0.329023 
    0.671635     0.610970     0.294723 
    0.238894     0.401575     0.563348 
    0.171943     0.033130     0.602631 
    0.172834     0.390534     0.084268 
    0.742197     0.475369     0.084682 
    0.251443     0.348819     0.881579 
    0.802224     0.730138     0.957757 
    0.097547     0.058193     0.442957 
    0.514760     0.468211     0.425661 
    0.514504     0.217460     0.432765 
    0.042594     0.546729     0.924280 
EA140   8.994  3.832  3.791 91.38 90.21 89.19 Sym.group:    1
1.0
    8.993863     0.078864     0.052576
    0.021014     3.831088    -0.075440
   -0.035649    -0.016727     3.791247
  La  Ga   H
   4   2  24
Direct
    0.904102     0.721233     0.809170 
    0.015060     0.226413     0.266480 
    0.405173     0.219781     0.296370 
    0.507473     0.697991     0.814017 
    0.204864     0.722094     0.033997 
    0.707019     0.023604     0.315456 
    0.210997     0.429761     0.366222 
    0.275079     0.845459     0.575160 
    0.711056     0.422572     0.851111 
    0.597926     0.182450     0.982767 
    0.108583     0.048376     0.770819 
    0.113250     0.306944     0.771044 
    0.549255     0.787711     0.324080 
    0.703241     0.943848     0.741873 
    0.285970     0.597157     0.602815 
    0.302071     0.339744     0.818590 
    0.800395     0.555447     0.292968 
    0.813209     0.394216     0.451245 
    0.550685     0.186165     0.709267 
    0.374275     0.720266     0.260297 
    0.868641     0.210680     0.695203 
    0.934654     0.752411     0.307729 
    0.810873     0.204514     0.994793 
    0.712245     0.629586     0.095217 
    0.306315     0.075514     0.831231 
    0.209330     0.012246     0.427710 
    0.115451     0.563991     0.623584 
    0.085322     0.737834     0.457338 
    0.695571     0.470913     0.634990 
    0.614225     0.443314     0.358526 
EA141   5.137  5.183  5.138 98.99 96.86 99.04 Sym.group:    1
1.0
    5.119692     0.209671     0.363588
   -1.043817     5.069125     0.269990
   -0.910989    -1.269384     4.894886
  La  Ga   H
   4   2  24
Direct
    0.632360     0.133875     0.632237 
    0.608077     0.605939     0.106029 
    0.108333     0.603156     0.616495 
    0.613249     0.633498     0.609886 
    0.276767     0.255922     0.275628 
    0.964257     0.979386     0.968173 
    0.197615     0.937943     0.191809 
    0.196227     0.400669     0.953544 
    0.991902     0.390283     0.202200 
    0.787355     0.259674     0.046359 
    0.009756     0.779085     0.273429 
    0.249351     0.025838     0.777967 
    0.040859     0.246153     0.787983 
    0.779599     0.020905     0.246156 
    0.254441     0.784544     0.023591 
    0.292207     0.870018     0.421824 
    0.398319     0.191651     0.967721 
    0.747650     0.356342     0.347314 
    0.418000     0.864834     0.300690 
    0.349160     0.352051     0.739141 
    0.942387     0.175166     0.391143 
    0.885105     0.493598     0.890058 
    0.905140     0.891807     0.493243 
    0.472619     0.887119     0.900363 
    0.196398     0.581447     0.021577 
    0.036400     0.188997     0.570533 
    0.559476     0.005071     0.216133 
    0.021810     0.609868     0.205137 
    0.214370     0.010550     0.594715 
    0.607925     0.196724     0.042227 
EA142   5.626  4.192  5.588 90.00 90.00 90.00 Sym.group:   18
1.0
    5.626031     0.000094    -0.024175
    0.000047     4.192149     0.020662
    0.024112    -0.027645     5.587914
  La  Ga   H
   4   2  24
Direct
    0.875289     0.473823     0.279112 
    0.375250     0.527641     0.220322 
    0.624689     0.527685     0.779198 
    0.124757     0.473836     0.720248 
    0.999895     0.938992     0.999655 
    0.500164     0.062502     0.499752 
    0.859204     0.266054     0.942369 
    0.359202     0.735608     0.557004 
    0.640818     0.735376     0.442466 
    0.140805     0.265964     0.056941 
    0.165091     0.190166     0.405579 
    0.664950     0.811326     0.093999 
    0.334801     0.811309     0.905716 
    0.834972     0.190196     0.593882 
    0.875143     0.780449     0.573179 
    0.375137     0.220915     0.926217 
    0.624812     0.221003     0.073242 
    0.124792     0.780566     0.426181 
    0.648906     0.020144     0.789044 
    0.149009     0.981335     0.710652 
    0.851142     0.981338     0.288943 
    0.350840     0.020184     0.210800 
    0.118694     0.018833     0.553980 
    0.618328     0.982213     0.945699 
    0.381418     0.982793     0.054211 
    0.881693     0.019259     0.445586 
    0.377370     0.130088     0.769947 
    0.877291     0.871394     0.729366 
    0.122610     0.871322     0.269846 
    0.622700     0.130069     0.229478 
EA143   3.838  3.836  8.970 90.43 89.93 90.16 Sym.group:    1
1.0
    3.837958    -0.001828     0.011305
   -0.008606     3.835993     0.012537
   -0.014881    -0.096808     8.969286
  La  Ga   H
   4   2  24
Direct
    0.497275     0.001266     0.185111 
    0.998264     0.498889     0.815982 
    0.509479     0.997880     0.478765 
    0.008194     0.497485     0.522179 
    0.498606     0.998687     0.763109 
    0.997828     0.500688     0.237853 
    0.157967     0.785949     0.020469 
    0.836879     0.217413     0.021719 
    0.717581     0.660693     0.021600 
    0.282488     0.343250     0.021338 
    0.338459     0.716598     0.980277 
    0.657411     0.278691     0.978702 
    0.783448     0.840342     0.979544 
    0.213910     0.162804     0.980703 
    0.154161     0.005837     0.867379 
    0.844437     0.992679     0.867238 
    0.492920     0.655630     0.868399 
    0.503777     0.345913     0.867252 
    0.344739     0.494885     0.134757 
    0.654835     0.506597     0.131853 
    0.003364     0.845187     0.135401 
    0.991181     0.154768     0.131606 
    0.942178     0.129977     0.348249 
    0.075654     0.862351     0.352897 
    0.368928     0.429248     0.350720 
    0.637898     0.565078     0.350508 
    0.570891     0.365078     0.649999 
    0.442399     0.631050     0.650833 
    0.137048     0.064340     0.649098 
    0.869880     0.931695     0.651551 
EA144   5.896  5.699  4.351 90.13 91.16 115.56 Sym.group:    1
1.0
    3.193496    -4.955830     0.021980
    2.989386     4.851633    -0.049722
   -0.072642     0.077314     4.349945
  La  Ga   H
   4   2  24
Direct
    0.575584     0.934150     0.174757 
    0.048296     0.636853     0.186718 
    0.349633     0.385303     0.168497 
    0.681051     0.339334     0.802924 
    0.991522     0.013661     0.466892 
    0.349638     0.661497     0.675161 
    0.987976     0.692850     0.678020 
    0.352309     0.353167     0.665479 
    0.624117     0.972982     0.664552 
    0.339786     0.148183     0.544628 
    0.833579     0.206880     0.497969 
    0.828512     0.654432     0.546627 
    0.625754     0.707052     0.489237 
    0.269810     0.876123     0.501847 
    0.106955     0.375967     0.475515 
    0.606032     0.655509     0.853857 
    0.376399     0.995787     0.797032 
    0.054636     0.444713     0.794893 
    0.939716     0.221341     0.136225 
    0.734280     0.678996     0.165116 
    0.259764     0.016330     0.199898 
    0.771051     0.293866     0.356510 
    0.702951     0.488152     0.377415 
    0.496504     0.191159     0.413866 
    0.838375     0.974986     0.860604 
    0.060410     0.899192     0.862425 
    0.109480     0.154164     0.822564 
    0.233414     0.984321     0.900988 
    0.027392     0.247215     0.845849 
    0.807238     0.823452     0.899186 
EA145   3.823  3.824  8.825 89.82 90.30 89.95 Sym.group:    4
1.0
    3.823096    -0.018055     0.012157
    0.021596     3.823713    -0.005073
   -0.073613     0.039422     8.824830
  La  Ga   H
   4   2  24
Direct
    0.500148     0.505504     0.847926 
    0.503830     0.500481     0.146937 
    0.995499     0.001173     0.647014 
    0.001223     0.998429     0.348009 
    0.503257     0.498968     0.498693 
    0.997390     0.001629     0.997539 
    0.195013     0.499839     0.660065 
    0.201312     0.499338     0.335153 
    0.800404     0.499436     0.336977 
    0.801004     0.500084     0.660827 
    0.499648     0.802505     0.334363 
    0.495254     0.196590     0.661425 
    0.495276     0.803332     0.658248 
    0.499268     0.198640     0.334505 
    0.300989     0.007014     0.834650 
    0.303200     0.000606     0.159476 
    0.701002     0.000475     0.158488 
    0.697743     0.006726     0.834376 
    0.004927     0.697919     0.160581 
    0.000657     0.307702     0.834287 
    0.000555     0.702644     0.837410 
    0.005298     0.303866     0.161851 
    0.493781     0.005459     0.943397 
    0.496182     0.000086     0.047702 
    0.003397     0.497618     0.052010 
    0.001143     0.499580     0.947564 
    0.001348     0.502737     0.548535 
    0.010873     0.497469     0.444270 
    0.503296     0.996590     0.443284 
    0.492951     0.003217     0.547679 
EA146   3.843  3.910  8.956 92.47 90.03 98.30 Sym.group:    1
1.0
    3.834173    -0.255225    -0.025927
   -0.306544     3.897448    -0.071264
    0.040718    -0.220992     8.952768
  La  Ga   H
   4   2  24
Direct
    0.416639     0.039429     0.254029 
    0.010320     0.476788     0.751181 
    0.446724     0.045787     0.617902 
    0.966280     0.480181     0.394245 
    0.629761     0.953272     0.900200 
    0.949976     0.470523     0.109517 
    0.373783     0.368956     0.090513 
    0.056581     0.218695     0.937530 
    0.154501     0.869910     0.886673 
    0.602627     0.688272     0.124512 
    0.533873     0.624601     0.743044 
    0.173424     0.886793     0.060709 
    0.755763     0.026224     0.081162 
    0.465989     0.431631     0.898571 
    0.262263     0.145680     0.864799 
    0.505325     0.258793     0.049813 
    0.409007     0.695275     0.078419 
    0.980596     0.757017     0.937131 
    0.892060     0.896266     0.256998 
    0.317285     0.566077     0.944948 
    0.744800     0.474769     0.943506 
    0.120333     0.077338     0.042274 
    0.461130     0.357850     0.445140 
    0.951792     0.151152     0.561529 
    0.913811     0.959529     0.719879 
    0.497789     0.555922     0.293482 
    0.758313     0.677178     0.582155 
    0.119688     0.984504     0.442343 
    0.669473     0.870709     0.431780 
    0.317881     0.540185     0.562439 
EA147   4.634  5.274  5.520 89.96 101.88 89.98 Sym.group:    2
1.0
    4.632496     0.010079     0.119500
   -0.010044     5.274032     0.033701
   -1.275598    -0.032858     5.370526
  La  Ga   H
   4   2  24
Direct
    0.000702     0.000020     0.000774 
    0.999490     0.000079     0.500394 
    0.999486     0.499999     0.000201 
    0.999653     0.500180     0.500334 
    0.500191     0.527055     0.249133 
    0.499662     0.472548     0.750009 
    0.553508     0.923439     0.625011 
    0.437472     0.921474     0.876495 
    0.446014     0.076879     0.374681 
    0.565524     0.078406     0.125864 
    0.644835     0.251269     0.969118 
    0.354276     0.253141     0.528942 
    0.354614     0.747885     0.029984 
    0.644575     0.746562     0.471269 
    0.207798     0.255822     0.792902 
    0.791385     0.255469     0.706986 
    0.792581     0.744048     0.208021 
    0.209568     0.744026     0.294332 
    0.799689     0.267149     0.211829 
    0.203713     0.266705     0.291713 
    0.200115     0.733231     0.789078 
    0.796215     0.733836     0.709494 
    0.367379     0.761715     0.580477 
    0.634858     0.758450     0.920661 
    0.632033     0.238601     0.421073 
    0.365237     0.242184     0.079314 
    0.363476     0.058514     0.829002 
    0.638759     0.056994     0.674754 
    0.636767     0.940536     0.172065 
    0.360993     0.942654     0.326638 
EA148   5.188  5.253  5.470 79.87 65.85 91.60 Sym.group:    1
1.0
    5.185936    -0.065141    -0.131834
   -0.102512     5.186207    -0.828484
    2.377789     1.756682     4.602210
  La  Ga   H
   4   2  24
Direct
    0.247975     0.156130     0.582277 
    0.729223     0.652576     0.582140 
    0.500497     0.040385     0.036495 
    0.984830     0.537025     0.012375 
    0.953909     0.014807     0.143098 
    0.399993     0.519770     0.157613 
    0.955773     0.351931     0.409392 
    0.601044     0.265753     0.671119 
    0.834679     0.029359     0.639881 
    0.600700     0.422315     0.370243 
    0.307218     0.537273     0.637528 
    0.502315     0.722697     0.327693 
    0.114346     0.889298     0.423481 
    0.102585     0.778299     0.604431 
    0.117467     0.526060     0.579687 
    0.446234     0.834120     0.430432 
    0.144007     0.730953     0.249317 
    0.308101     0.753995     0.669613 
    0.782857     0.322776     0.404808 
    0.809474     0.269739     0.685954 
    0.604598     0.023264     0.627848 
    0.668449     0.105189     0.347757 
    0.694924     0.734197     0.970315 
    0.905989     0.210885     0.892167 
    0.217277     0.900996     0.912843 
    0.369823     0.366186     0.832959 
    0.890221     0.896438     0.794716 
    0.678104     0.403826     0.927095 
    0.378872     0.736894     0.888818 
    0.151907     0.237260     0.206623 
EA149   4.830  4.829  5.669 90.01 89.98 90.00 Sym.group:  129
1.0
    4.830325     0.025495     0.007292
   -0.025368     4.828755    -0.031103
   -0.007068     0.035751     5.668604
  La  Ga   H
   4   2  24
Direct
    0.001858     0.501618     0.857718 
    0.501844     0.001664     0.141331 
    0.002102     0.501468     0.373874 
    0.501683     0.001761     0.625178 
    0.001897     0.001664     0.000030 
    0.501783     0.501642     0.999039 
    0.209272     0.709832     0.131762 
    0.709490     0.793697     0.867223 
    0.294374     0.209780     0.867324 
    0.794213     0.293691     0.131791 
    0.293409     0.794498     0.867286 
    0.793305     0.708590     0.131833 
    0.210290     0.294424     0.131705 
    0.710395     0.208679     0.867257 
    0.668076     0.595477     0.625634 
    0.168126     0.907752     0.373430 
    0.836149     0.094836     0.373258 
    0.335878     0.408001     0.625635 
    0.408424     0.335660     0.373439 
    0.907563     0.168374     0.625329 
    0.095499     0.835521     0.625604 
    0.595984     0.668262     0.373539 
    0.670586     0.404550     0.626617 
    0.170805     0.098988     0.372703 
    0.832542     0.903851     0.372607 
    0.332702     0.599234     0.626414 
    0.599479     0.332827     0.372288 
    0.098696     0.169767     0.627005 
    0.904611     0.833032     0.626828 
    0.405022     0.669857     0.372139 
EA150   2.833  3.452 13.599 92.37 93.60 90.45 Sym.group:    1
1.0
    2.829487     0.134774     0.012250
   -0.191662     3.439270     0.223123
   -0.841717    -1.486146    13.491303
  La  Ga   H
   4   2  24
Direct
    0.187237     0.786511     0.602079 
    0.497893     0.152865     0.940445 
    0.034201     0.544095     0.107204 
    0.576939     0.207322     0.259524 
    0.640295     0.259464     0.466434 
    0.117053     0.751325     0.400891 
    0.069268     0.719794     0.257918 
    0.021944     0.008300     0.037746 
    0.045402     0.040380     0.166313 
    0.166499     0.275467     0.529317 
    0.703493     0.249038     0.593743 
    0.505848     0.682842     0.015473 
    0.108776     0.262752     0.363263 
    0.596322     0.724041     0.334104 
    0.534788     0.032318     0.102345 
    0.464536     0.641262     0.864379 
    0.971685     0.138970     0.720416 
    0.597470     0.400317     0.680464 
    0.372910     0.185686     0.787822 
    0.597223     0.332378     0.796136 
    0.749959     0.808950     0.821507 
    0.150970     0.602720     0.748215 
    0.314260     0.790089     0.757157 
    0.736508     0.601774     0.713058 
    0.159034     0.588750     0.868406 
    0.979716     0.653745     0.957453 
    0.252243     0.298772     0.676815 
    0.967115     0.361896     0.836986 
    0.952134     0.968797     0.827135 
    0.746328     0.992985     0.712837 
EA151   8.820  5.290  2.892 74.45 90.24 84.71 Sym.group:    1
1.0
    8.800642    -0.566769    -0.165521
    0.827835     5.222051     0.155989
    0.085223     0.688059     2.807253
  La  Ga   H
   4   2  24
Direct
    0.873842     0.180651     0.235650 
    0.202806     0.532724     0.573305 
    0.421824     0.921920     0.373905 
    0.933365     0.695088     0.991728 
    0.140376     0.044321     0.814492 
    0.489384     0.370250     0.652986 
    0.386788     0.612217     0.026923 
    0.655945     0.990891     0.388771 
    0.225284     0.190789     0.239185 
    0.075076     0.357211     0.158939 
    0.353881     0.331906     0.169477 
    0.272865     0.792876     0.941967 
    0.065658     0.896313     0.386629 
    0.637038     0.701551     0.644066 
    0.326846     0.164416     0.751745 
    0.595107     0.376186     0.134248 
    0.698063     0.163489     0.738214 
    0.726479     0.541269     0.206986 
    0.558096     0.050542     0.812614 
    0.726939     0.545003     0.895873 
    0.810899     0.502264     0.572339 
    0.627654     0.139354     0.242513 
    0.777134     0.800953     0.444181 
    0.590022     0.798662     0.935855 
    0.514854     0.649632     0.017194 
    0.722679     0.818664     0.139129 
    0.610455     0.625280     0.423770 
    0.705552     0.328550     0.651364 
    0.995501     0.376824     0.646530 
    0.752717     0.961271     0.808034 
EA152   7.295  6.701  2.884 102.22 89.61 108.09 Sym.group:    1
1.0
    7.292402    -0.102366     0.142973
   -1.984569     6.389939    -0.364271
   -0.043008    -0.491424     2.841860
  La  Ga   H
   4   2  24
Direct
    0.953313     0.836356     0.202640 
    0.623609     0.323892     0.447066 
    0.037877     0.330039     0.449948 
    0.332165     0.022372     0.800427 
    0.728797     0.040795     0.813729 
    0.361526     0.456460     0.009162 
    0.318561     0.274804     0.421762 
    0.052081     0.569212     0.067385 
    0.830039     0.304572     0.935316 
    0.538367     0.996541     0.281460 
    0.798316     0.620574     0.595969 
    0.043690     0.095945     0.833626 
    0.175966     0.111678     0.347845 
    0.176841     0.559714     0.061818 
    0.731883     0.550813     0.059096 
    0.522587     0.592772     0.570773 
    0.924852     0.594461     0.585586 
    0.495119     0.807650     0.591231 
    0.887330     0.493027     0.032034 
    0.298810     0.595961     0.570201 
    0.765036     0.822626     0.695322 
    0.604758     0.729157     0.145336 
    0.465169     0.783634     0.863622 
    0.381975     0.770132     0.182936 
    0.218381     0.668738     0.623622 
    0.235162     0.794725     0.190687 
    0.597535     0.532338     0.047741 
    0.654995     0.649594     0.603600 
    0.663506     0.849380     0.215516 
    0.097219     0.712265     0.637875 
EA153   8.831  4.199  4.198 60.15 94.13 80.04 Sym.group:    1
1.0
    8.825825     0.134297     0.267018
    0.661090     4.145681     0.094304
   -0.443238     2.104680     3.604649
  La  Ga   H
   4   2  24
Direct
    0.760877     0.966947     0.143971 
    0.216850     0.734895     0.292672 
    0.392719     0.969165     0.702572 
    0.958003     0.560214     0.861090 
    0.073221     0.150790     0.573440 
    0.542989     0.546266     0.413387 
    0.200652     0.670922     0.827482 
    0.387782     0.443521     0.759784 
    0.194078     0.285778     0.216887 
    0.009175     0.979686     0.298424 
    0.385570     0.038430     0.169254 
    0.309202     0.263649     0.969776 
    0.189370     0.290757     0.814870 
    0.516691     0.141280     0.004206 
    0.399765     0.428910     0.169241 
    0.555125     0.394819     0.966915 
    0.595816     0.109745     0.728769 
    0.765813     0.466173     0.134670 
    0.550050     0.103665     0.301302 
    0.611498     0.544201     0.827789 
    0.881263     0.157560     0.444340 
    0.603637     0.756463     0.999571 
    0.996265     0.616152     0.333677 
    0.760447     0.449360     0.624796 
    0.600392     0.917120     0.512697 
    0.759612     0.025090     0.607397 
    0.845652     0.315995     0.613783 
    0.705401     0.321763     0.330563 
    0.989371     0.995857     0.969822 
    0.722540     0.746920     0.787005 
EA154   6.608  7.238  2.942 79.43 100.61 77.43 Sym.group:    1
1.0
    6.606516     0.140043    -0.027127
    1.426760     7.082329     0.444236
   -0.540034     0.481225     2.851453
  La  Ga   H
   4   2  24
Direct
    0.427225     0.841853     0.948376 
    0.000814     0.613466     0.902050 
    0.502781     0.484731     0.581968 
    0.777915     0.989078     0.602469 
    0.949002     0.314260     0.508690 
    0.208597     0.164839     0.181297 
    0.191029     0.459970     0.551426 
    0.300320     0.301060     0.611326 
    0.004336     0.837020     0.275184 
    0.299067     0.618370     0.942553 
    0.219763     0.713044     0.425335 
    0.109133     0.882472     0.798718 
    0.220263     0.922622     0.328612 
    0.295841     0.410228     0.029745 
    0.408321     0.204954     0.732336 
    0.682866     0.209848     0.973168 
    0.434060     0.298105     0.158395 
    0.113811     0.025777     0.729806 
    0.949133     0.109163     0.122684 
    0.555310     0.077737     0.965600 
    0.537250     0.214181     0.395374 
    0.796041     0.552702     0.359159 
    0.815551     0.419559     0.905627 
    0.463163     0.037260     0.382318 
    0.011228     0.972583     0.207649 
    0.664833     0.717217     0.620126 
    0.748524     0.243839     0.744013 
    0.766822     0.782918     0.194139 
    0.671045     0.597861     0.079086 
    0.706250     0.303159     0.238261 
EA155   6.054  4.061  5.578 91.37 97.58 74.82 Sym.group:    1
1.0
    6.051115     0.148482     0.108894
    0.969426     3.941900    -0.113383
   -0.841040     0.227917     5.509164
  La  Ga   H
   4   2  24
Direct
    0.959909     0.126275     0.019537 
    0.591693     0.374754     0.428142 
    0.264124     0.506615     0.927374 
    0.566788     0.900699     0.827108 
    0.184397     0.243679     0.502186 
    0.973460     0.782877     0.527955 
    0.189116     0.706856     0.279731 
    0.869322     0.639332     0.022848 
    0.187270     0.007423     0.748315 
    0.427641     0.925289     0.453167 
    0.295038     0.793043     0.258248 
    0.016044     0.629172     0.193265 
    0.298500     0.991773     0.020790 
    0.331852     0.676404     0.604251 
    0.243782     0.269782     0.235897 
    0.512864     0.675104     0.127567 
    0.722588     0.824583     0.254734 
    0.725562     0.995433     0.185376 
    0.923277     0.368984     0.662076 
    0.744488     0.561206     0.094169 
    0.447294     0.110380     0.167627 
    0.810786     0.099690     0.688660 
    0.487548     0.947340     0.288704 
    0.946875     0.132781     0.379855 
    0.801436     0.475317     0.741810 
    0.592146     0.392007     0.803421 
    0.856392     0.478615     0.286239 
    0.697875     0.804708     0.504530 
    0.612609     0.292105     0.069380 
    0.921079     0.717900     0.825771 
EA156   4.986  5.008  5.339 91.49 90.13 89.92 Sym.group:    5
1.0
    4.985356    -0.033226     0.026080
    0.040858     5.007982    -0.034397
   -0.040348    -0.101535     5.337762
  La  Ga   H
   4   2  24
Direct
    0.998651     0.503512     0.248782 
    0.499670     0.996793     0.249409 
    0.999645     0.497440     0.749452 
    0.499229     0.003859     0.748820 
    0.001812     0.000723     0.999730 
    0.501354     0.500483     0.499527 
    0.298966     0.300048     0.991425 
    0.798771     0.201119     0.507139 
    0.202420     0.796672     0.507210 
    0.703857     0.705472     0.991026 
    0.202349     0.203801     0.491705 
    0.704039     0.294795     0.007393 
    0.297409     0.702198     0.007195 
    0.799609     0.800528     0.491726 
    0.868511     0.133892     0.274132 
    0.368016     0.366228     0.226954 
    0.622699     0.623610     0.221260 
    0.125100     0.874723     0.278021 
    0.379773     0.617495     0.133173 
    0.881546     0.884041     0.365534 
    0.117784     0.125160     0.362012 
    0.617295     0.375067     0.135186 
    0.117921     0.875406     0.637274 
    0.617203     0.624935     0.863638 
    0.381504     0.384253     0.866136 
    0.880194     0.117953     0.634710 
    0.624923     0.375509     0.777137 
    0.123896     0.124950     0.721125 
    0.868694     0.867120     0.726075 
    0.368726     0.634367     0.772958 
EA157   3.916  4.012  8.350 90.03 89.92 89.98 Sym.group:    1
1.0
    3.915618     0.025302    -0.054643
   -0.024574     4.012087     0.011392
    0.128260    -0.027791     8.349135
  La  Ga   H
   4   2  24
Direct
    0.570164     0.756377     0.715962 
    0.920534     0.754703     0.283162 
    0.420379     0.242201     0.283240 
    0.069710     0.243270     0.715014 
    0.240734     0.863127     0.998799 
    0.740984     0.144822     0.998646 
    0.066983     0.743573     0.660796 
    0.427579     0.742484     0.336714 
    0.926933     0.254123     0.335821 
    0.565553     0.256531     0.658745 
    0.547660     0.275034     0.830962 
    0.947110     0.273061     0.164567 
    0.446180     0.725681     0.164517 
    0.047993     0.723788     0.832480 
    0.828373     0.177040     0.466032 
    0.659735     0.146720     0.522611 
    0.161227     0.848947     0.524204 
    0.329917     0.824766     0.467491 
    0.256727     0.199744     0.501307 
    0.764420     0.800386     0.502725 
    0.065260     0.404241     0.934542 
    0.432215     0.417632     0.065816 
    0.930710     0.590688     0.063652 
    0.558706     0.598007     0.935522 
    0.422496     0.440395     0.523703 
    0.081239     0.441856     0.476285 
    0.579209     0.555646     0.475149 
    0.919828     0.561606     0.522832 
    0.246488     0.353694     0.004732 
    0.746542     0.652028     0.999828 
EA158   3.747  3.689  5.224 76.65 70.07 89.99 Sym.group:    1
1.0
    3.733926    -0.050039     0.304109
    0.027656     3.678997     0.272906
    1.393251     0.831152     4.965906
  La  Ga   H
   2   1  12
Direct
    0.966586     0.990750     0.128480 
    0.678030     0.493783     0.710912 
    0.383256     0.440554     0.306540 
    0.911828     0.425039     0.319001 
    0.823659     0.529346     0.035686 
    0.819514     0.049996     0.540523 
    0.565577     0.906701     0.920879 
    0.322331     0.796551     0.439314 
    0.467158     0.113922     0.131052 
    0.551318     0.074120     0.495340 
    0.181480     0.291967     0.703461 
    0.022729     0.024830     0.589879 
    0.154375     0.786471     0.755072 
    0.357701     0.940704     0.762454 
    0.220708     0.537373     0.023564 
EA159   3.801  4.362  4.511 97.99 114.82 96.15 Sym.group:    1
1.0
    3.800132    -0.041680    -0.069462
   -0.417732     4.341144     0.101677
   -1.829884    -0.900136     4.023191
  La  Ga   H
   2   1  12
Direct
    0.001099     0.941049     0.490427 
    0.605697     0.643168     0.762170 
    0.444479     0.288280     0.159484 
    0.894432     0.452504     0.164830 
    0.100050     0.582535     0.183710 
    0.412014     0.684952     0.170305 
    0.781198     0.185562     0.862823 
    0.576156     0.993854     0.046634 
    0.146613     0.368700     0.796848 
    0.185492     0.724635     0.897303 
    0.234748     0.305365     0.415845 
    0.905397     0.411310     0.516657 
    0.021332     0.031161     0.050827 
    0.614663     0.158571     0.663641 
    0.437648     0.928998     0.367051 
EA160   3.631  3.705  5.126 80.18 81.24 90.64 Sym.group:    1
1.0
    3.622457     0.076627     0.232026
   -0.103733     3.694756    -0.251828
    0.438804     1.226896     4.958098
  La  Ga   H
   2   1  12
Direct
    0.418242     0.490805     0.379107 
    0.968156     0.973724     0.884597 
    0.901039     0.996135     0.377241 
    0.415245     0.005340     0.138147 
    0.881941     0.349007     0.552113 
    0.958766     0.611259     0.230395 
    0.516788     0.995435     0.690112 
    0.259030     0.512613     0.784728 
    0.492233     0.292322     0.013927 
    0.491047     0.222870     0.762930 
    0.119011     0.413303     0.076375 
    0.469659     0.692475     0.783701 
    0.295267     0.951415     0.512176 
    0.837026     0.568862     0.654454 
    0.681250     0.458297     0.983986 
EA161   4.909  5.000  3.083 75.93 102.30 115.54 Sym.group:    1
1.0
    4.855963    -0.557547     0.455083
   -1.622888     4.727434    -0.142467
   -0.868955     0.582024     2.900016
  La  Ga   H
   2   1  12
Direct
    0.264620     0.479223     0.264165 
    0.014217     0.917024     0.758312 
    0.575684     0.114114     0.368542 
    0.701634     0.788376     0.215665 
    0.776604     0.604435     0.270779 
    0.445607     0.921544     0.910648 
    0.862923     0.134042     0.092185 
    0.546544     0.747572     0.720376 
    0.910600     0.305152     0.733029 
    0.838021     0.480933     0.122392 
    0.003758     0.527527     0.658394 
    0.651727     0.438850     0.620924 
    0.595018     0.558439     0.777930 
    0.226372     0.834580     0.374253 
    0.400311     0.267471     0.912578 
EA162   4.101  4.531  3.721 80.08 83.02 73.28 Sym.group:    1
1.0
    4.096429     0.200228    -0.035483
    1.090457     4.398050     0.026784
    0.459033     0.524104     3.655095
  La  Ga   H
   2   1  12
Direct
    0.088881     0.422907     0.922911 
    0.452226     0.837691     0.224693 
    0.732149     0.168282     0.537207 
    0.526094     0.583699     0.749519 
    0.858254     0.533792     0.434912 
    0.618749     0.388112     0.130450 
    0.945016     0.942419     0.088042 
    0.628182     0.201894     0.955995 
    0.311833     0.421975     0.418155 
    0.126585     0.215880     0.456402 
    0.343255     0.025447     0.704918 
    0.707420     0.788683     0.717919 
    0.001168     0.669814     0.383947 
    0.068209     0.807431     0.583634 
    0.202049     0.872009     0.746016 
EA163   3.741  5.319  3.639 101.79 90.09 69.72 Sym.group:    1
1.0
    3.739581     0.027501     0.078536
    1.806496     5.002758     0.028039
   -0.074855    -0.783725     3.552926
  La  Ga   H
   2   1  12
Direct
    0.291028     0.326269     0.578617 
    0.575529     0.743044     0.084718 
    0.998474     0.918957     0.631784 
    0.900491     0.122879     0.348402 
    0.837614     0.647864     0.554439 
    0.170747     0.123921     0.001640 
    0.783915     0.345273     0.786714 
    0.765700     0.388813     0.308885 
    0.516313     0.943735     0.649490 
    0.476148     0.149258     0.024543 
    0.028072     0.836351     0.042280 
    0.958415     0.375117     0.124942 
    0.174921     0.543145     0.154865 
    0.655343     0.212404     0.030715 
    0.426110     0.654482     0.556241 
EA164   3.880  3.719  4.784 79.07 75.88 89.52 Sym.group:    1
1.0
    3.861878    -0.095345     0.363286
    0.113029     3.715310     0.106996
    0.751971     0.750825     4.664303
  La  Ga   H
   2   1  12
Direct
    0.597664     0.686268     0.385593 
    0.340991     0.188467     0.017684 
    0.925932     0.718648     0.813682 
    0.116238     0.668569     0.124763 
    0.451970     0.162321     0.484925 
    0.085433     0.412635     0.398119 
    0.941331     0.238394     0.389120 
    0.799172     0.287802     0.152041 
    0.241170     0.049944     0.611779 
    0.073305     0.853984     0.426038 
    0.687368     0.124411     0.600353 
    0.185972     0.410019     0.669449 
    0.851260     0.075851     0.960611 
    0.462330     0.750724     0.823421 
    0.774768     0.365544     0.697458 
EA165   4.026  4.757  3.552 78.02 89.66 97.85 Sym.group:    1
1.0
    4.021005     0.183935    -0.064444
   -0.863311     4.677554     0.071295
    0.044872     0.704797     3.480607
  La  Ga   H
   2   1  12
Direct
    0.102147     0.068894     0.403791 
    0.687042     0.508034     0.260294 
    0.582872     0.054138     0.910345 
    0.416682     0.797127     0.345311 
    0.358130     0.339313     0.799949 
    0.204595     0.492378     0.993458 
    0.193203     0.549675     0.218517 
    0.604951     0.063515     0.439521 
    0.476722     0.684262     0.709939 
    0.199041     0.849860     0.937663 
    0.161318     0.552549     0.529608 
    0.719184     0.711161     0.700605 
    0.923535     0.313972     0.815805 
    0.920787     0.886784     0.953367 
    0.983190     0.640976     0.708454 
EA166   3.694  3.762  5.084 101.85 107.19 90.37 Sym.group:    1
1.0
    3.678382    -0.271021    -0.199771
    0.260087     3.749438     0.153921
   -1.334344    -1.150724     4.768902
  La  Ga   H
   2   1  12
Direct
    0.645048     0.986450     0.933991 
    0.407844     0.566827     0.381684 
    0.067940     0.421108     0.754178 
    0.062789     0.041010     0.339108 
    0.896426     0.323054     0.347358 
    0.820198     0.552142     0.147734 
    0.313415     0.123418     0.571124 
    0.168332     0.192543     0.010042 
    0.913427     0.842057     0.323131 
    0.543872     0.514309     0.025329 
    0.487199     0.034037     0.275007 
    0.166879     0.778659     0.037745 
    0.620992     0.447011     0.773678 
    0.699510     0.098581     0.534952 
    0.016234     0.814582     0.630277 
EA167   5.235  3.713  3.702 90.01 100.91 69.28 Sym.group:    1
1.0
    5.213941     0.134642    -0.445999
    1.200709     3.497968    -0.326085
   -0.403556     0.478127     3.648377
  La  Ga   H
   2   1  12
Direct
    0.327970     0.204917     0.059343 
    0.998375     0.869080     0.631822 
    0.748358     0.492850     0.074859 
    0.514122     0.101322     0.608387 
    0.394334     0.431452     0.563491 
    0.646539     0.803334     0.382185 
    0.326431     0.705450     0.328593 
    0.644178     0.287454     0.388950 
    0.102760     0.317340     0.482525 
    0.822698     0.456854     0.673112 
    0.001814     0.672211     0.137113 
    0.002099     0.063048     0.137561 
    0.397883     0.918873     0.565028 
    0.692155     0.024106     0.909995 
    0.437414     0.647936     0.818955 
EA168   3.584  4.420  4.916 68.73 74.98 103.61 Sym.group:    1
1.0
    3.583943     0.042357     0.038052
   -1.090421     4.283427    -0.012028
    1.203418     2.158227     4.249621
  La  Ga   H
   2   1  12
Direct
    0.213181     0.650141     0.745090 
    0.899645     0.324673     0.390967 
    0.643058     0.928768     0.068867 
    0.056041     0.811365     0.069167 
    0.382753     0.108841     0.803618 
    0.123744     0.156376     0.065056 
    0.098857     0.857067     0.337470 
    0.846715     0.781214     0.464777 
    0.478403     0.542886     0.397903 
    0.363202     0.267492     0.058060 
    0.573181     0.490935     0.070004 
    0.796473     0.868962     0.740753 
    0.657055     0.434656     0.746184 
    0.355110     0.109635     0.373055 
    0.251237     0.185053     0.677153 
EA169   3.967  3.640  5.145 107.70 109.54 89.76 Sym.group:    1
1.0
    3.965381     0.022057     0.125111
   -0.009819     3.636453     0.153244
   -1.852987    -1.758615     4.466096
  La  Ga   H
   2   1  12
Direct
    0.788366     0.230269     0.671225 
    0.199650     0.552839     0.424307 
    0.361055     0.936401     0.020214 
    0.681198     0.638185     0.375336 
    0.236283     0.493160     0.036423 
    0.898857     0.897997     0.213216 
    0.973611     0.148415     0.048146 
    0.751317     0.143845     0.254891 
    0.327757     0.002661     0.338502 
    0.991807     0.763999     0.745740 
    0.291506     0.141362     0.674640 
    0.643642     0.806478     0.836600 
    0.705574     0.380678     0.053798 
    0.513268     0.432998     0.947772 
    0.930516     0.698881     0.069923 
EA170   3.638  4.618  4.785 112.36 104.01 105.21 Sym.group:    1
1.0
    3.635675    -0.077270    -0.104076
   -1.118018     4.480338    -0.027164
   -1.085402    -2.121674     4.149055
  La  Ga   H
   2   1  12
Direct
    0.141612     0.191483     0.920967 
    0.544197     0.596150     0.717482 
    0.256771     0.873630     0.317425 
    0.670915     0.491232     0.306581 
    0.551545     0.122520     0.703588 
    0.635782     0.067875     0.038702 
    0.046369     0.731954     0.567469 
    0.070104     0.442459     0.314830 
    0.790322     0.469588     0.059348 
    0.841451     0.949595     0.258942 
    0.913357     0.332397     0.587711 
    0.945357     0.298216     0.374266 
    0.158412     0.729714     0.925581 
    0.513886     0.215683     0.312447 
    0.590118     0.677863     0.310566 
EA171   3.274  3.560  5.603 88.58 87.69 89.60 Sym.group:    1
1.0
    3.273517     0.014251     0.062012
    0.008247     3.559176     0.071006
    0.119778     0.026546     5.601673
  La  Ga   H
   2   1  12
Direct
    0.019242     0.941622     0.409009 
    0.527426     0.428341     0.644329 
    0.548299     0.450529     0.146915 
    0.290311     0.658780     0.939837 
    0.925732     0.411193     0.914317 
    0.403768     0.136072     0.946305 
    0.548023     0.928455     0.886991 
    0.534043     0.935652     0.198872 
    0.104323     0.979563     0.039737 
    0.872315     0.906398     0.049458 
    0.046504     0.442855     0.218371 
    0.784674     0.914543     0.767053 
    0.287442     0.936747     0.705979 
    0.038063     0.722493     0.759935 
    0.020552     0.211791     0.813538 
EA172   4.238  4.202  4.572 90.34 89.67 119.20 Sym.group:    1
1.0
    2.147181    -3.653531    -0.031003
    2.123537     3.625697    -0.002138
    0.035193    -0.048978     4.571576
  La  Ga   H
   2   1  12
Direct
    0.668920     0.336936     0.495618 
    0.330441     0.670308     0.495752 
    0.679092     0.341049     0.995963 
    0.671689     0.808486     0.090288 
    0.183621     0.859926     0.093448 
    0.144232     0.324567     0.098788 
    0.165482     0.336374     0.908428 
    0.671666     0.833005     0.901246 
    0.187285     0.848689     0.908470 
    0.995361     0.818408     0.700864 
    0.189280     0.185228     0.708171 
    0.821402     0.001761     0.700795 
    0.813983     0.998512     0.293103 
    0.992679     0.815239     0.295607 
    0.177489     0.172439     0.309839 
EA173   3.721  4.342  4.302 75.51 78.56 78.23 Sym.group:    1
1.0
    3.681910     0.394225     0.367903
    0.386404     4.297200     0.488254
    0.376742     0.571044     4.246866
  La  Ga   H
   2   1  12
Direct
    0.807001     0.871112     0.827920 
    0.158663     0.261041     0.219397 
    0.459718     0.523896     0.573936 
    0.257667     0.124025     0.756177 
    0.708292     0.999486     0.293793 
    0.251644     0.789287     0.109918 
    0.715981     0.328898     0.956404 
    0.994719     0.794580     0.308221 
    0.342919     0.934161     0.611689 
    0.631413     0.176507     0.428671 
    0.625595     0.490486     0.161820 
    0.905684     0.568934     0.514776 
    0.986269     0.333345     0.771057 
    0.496827     0.848691     0.250085 
    0.337834     0.670877     0.932003 
EA174   4.820  4.836  2.850 90.02 89.95 90.11 Sym.group:    1
1.0
    4.819971     0.066388    -0.017118
   -0.075766     4.835834    -0.016925
    0.012344     0.009373     2.849556
  La  Ga   H
   2   1  12
Direct
    0.999219     0.499893     0.219127 
    0.499862     0.000275     0.783515 
    0.498750     0.500066     0.503535 
    0.001046     0.845863     0.733623 
    0.840939     0.999727     0.271701 
    0.159040     0.995089     0.271180 
    0.000361     0.153499     0.733309 
    0.281401     0.800189     0.261676 
    0.795484     0.287037     0.741993 
    0.201063     0.715664     0.741573 
    0.716906     0.200289     0.261688 
    0.722835     0.805460     0.262437 
    0.799217     0.717190     0.741165 
    0.195855     0.278940     0.740264 
    0.276492     0.194999     0.262457 
EA175   3.800  3.798  4.944 106.43 76.45 92.38 Sym.group:    1
1.0
    3.776710    -0.084983    -0.415855
   -0.043711     3.788284     0.273093
    1.607469    -1.697844     4.356311
  La  Ga   H
   2   1  12
Direct
    0.171930     0.903513     0.717443 
    0.744200     0.139415     0.270627 
    0.400922     0.528867     0.034501 
    0.230244     0.349323     0.364842 
    0.264511     0.975210     0.174775 
    0.916064     0.385858     0.764597 
    0.390126     0.387232     0.650287 
    0.956079     0.522103     0.010925 
    0.999568     0.583133     0.399316 
    0.699201     0.933896     0.605284 
    0.896572     0.433788     0.621898 
    0.554745     0.665142     0.346173 
    0.001311     0.754736     0.326875 
    0.640731     0.775732     0.836024 
    0.624607     0.145365     0.881430 
EA176   3.749  3.771  5.301 110.82 69.77 89.92 Sym.group:   12
1.0
    3.748307    -0.003375    -0.043164
    0.045850     1.612537     3.408270
    1.831405    -4.968392     0.241147
  La  Ga   H
   2   1  12
Direct
    0.188196     0.811056     0.624101 
    0.813176     0.187664     0.378684 
    0.501206     0.499586     0.001379 
    0.978497     0.376623     0.755440 
    0.023664     0.621754     0.247575 
    0.727793     0.625860     0.254970 
    0.274451     0.372348     0.747710 
    0.373563     0.273687     0.257036 
    0.626778     0.019355     0.746207 
    0.628366     0.724801     0.745115 
    0.374679     0.979841     0.256805 
    0.181496     0.148846     0.002647 
    0.819514     0.146909     0.000731 
    0.181283     0.850929     0.002081 
    0.825884     0.844787     0.000156 
EA177   3.396  5.479  3.718 88.04 89.27 75.84 Sym.group:    2
1.0
    3.370575     0.408867    -0.075677
    0.692189     5.434790     0.035526
    0.120562     0.088587     3.715199
  La  Ga   H
   2   1  12
Direct
    0.610306     0.752906     0.515394 
    0.398009     0.245937     0.483362 
    0.005923     0.998664     0.999566 
    0.126931     0.272620     0.994903 
    0.582738     0.202881     0.985100 
    0.881741     0.725123     0.004074 
    0.425064     0.788977     0.013596 
    0.834751     0.393582     0.717236 
    0.828884     0.411304     0.255645 
    0.172500     0.605242     0.284013 
    0.179393     0.587543     0.742657 
    0.349469     0.592213     0.112790 
    0.791032     0.573112     0.050441 
    0.658616     0.402739     0.888670 
    0.219600     0.424083     0.949513 
EA178   3.449  3.450  6.159 100.98 79.03 112.15 Sym.group:    8
1.0
    3.446279     0.083090     0.117858
   -1.355967     3.113618    -0.608239
    0.958429     0.304148     6.076627
  La  Ga   H
   2   1  12
Direct
    0.507719     0.357999     0.142782 
    0.906139     0.959406     0.572663 
    0.199627     0.666087     0.863067 
    0.668334     0.865404     0.930301 
    0.413564     0.137617     0.774545 
    0.000305     0.197325     0.930050 
    0.131529     0.734395     0.239376 
    0.834733     0.030683     0.249751 
    0.962866     0.902803     0.079142 
    0.377972     0.487565     0.620889 
    0.727831     0.452045     0.774696 
    0.459494     0.897715     0.360986 
    0.274969     0.590692     0.452533 
    0.574304     0.291246     0.470517 
    0.967766     0.405956     0.361096 
EA179   2.877  5.351  4.721 114.39 99.00 81.93 Sym.group:    1
1.0
    2.871148     0.010339     0.189533
    0.735152     5.300652    -0.018210
   -1.013389    -1.813172     4.239070
  La  Ga   H
   2   1  12
Direct
    0.728354     0.229990     0.125444 
    0.286995     0.742666     0.836910 
    0.470155     0.007632     0.481900 
    0.911220     0.665971     0.421073 
    0.266877     0.383390     0.453115 
    0.293895     0.357350     0.817271 
    0.804516     0.593108     0.086740 
    0.755579     0.574215     0.511762 
    0.859667     0.396199     0.613860 
    0.115517     0.448803     0.979424 
    0.487807     0.627157     0.198634 
    0.661058     0.339492     0.717933 
    0.239781     0.669919     0.344505 
    0.085181     0.084125     0.735547 
    0.872504     0.879915     0.211899 
EA180   3.449  5.208  3.919 78.00 85.03 72.23 Sym.group:    1
1.0
    3.420700     0.278389    -0.342143
    1.229843     5.046080     0.381825
    0.694794     0.380874     3.837561
  La  Ga   H
   2   1  12
Direct
    0.856347     0.864920     0.291754 
    0.147119     0.140525     0.699335 
    0.501290     0.499655     0.002790 
    0.460572     0.641069     0.361700 
    0.718643     0.869735     0.809923 
    0.290365     0.140688     0.178436 
    0.540433     0.365420     0.641503 
    0.594889     0.248803     0.413691 
    0.414503     0.752815     0.587898 
    0.092500     0.762110     0.828026 
    0.919680     0.241254     0.163400 
    0.943321     0.541379     0.771875 
    0.055922     0.464641     0.231577 
    0.810516     0.484618     0.400049 
    0.185577     0.523043     0.600138 
EA181   3.708  3.765  4.878 92.23 103.83 89.36 Sym.group:    1
1.0
    3.698248     0.034881     0.272803
    0.012491     3.763950    -0.074848
   -1.510535    -0.092386     4.636805
  La  Ga   H
   2   1  12
Direct
    0.559650     0.003859     0.521041 
    0.337788     0.526215     0.854826 
    0.965364     0.452508     0.277007 
    0.408061     0.505667     0.403134 
    0.224451     0.041721     0.090921 
    0.160793     0.846222     0.147249 
    0.516548     0.027671     0.960542 
    0.747089     0.947871     0.951116 
    0.801378     0.502857     0.581678 
    0.004368     0.020961     0.372938 
    0.662071     0.769332     0.192317 
    0.543535     0.261244     0.189302 
    0.857139     0.739964     0.874560 
    0.879941     0.284013     0.923795 
    0.105083     0.025884     0.738104 
EA182   5.088  5.312  2.862 74.60 90.06 61.41 Sym.group:   71
1.0
    5.087637     0.030458     0.023670
    2.511607     4.641175     0.605000
   -0.019167     0.512883     2.815303
  La  Ga   H
   2   1  12
Direct
    0.017932     0.963239     0.250382 
    0.316050     0.366600     0.548017 
    0.666915     0.665124     0.893177 
    0.019590     0.665085     0.898858 
    0.309879     0.986898     0.737515 
    0.763274     0.294020     0.587014 
    0.632031     0.343162     0.062722 
    0.849403     0.665512     0.394372 
    0.392940     0.035298     0.211356 
    0.023526     0.343261     0.060994 
    0.570970     0.035285     0.211819 
    0.484212     0.665009     0.394904 
    0.314460     0.664636     0.899404 
    0.941360     0.294036     0.586533 
    0.702186     0.987197     0.737057 
EA183   5.259  3.785  3.597 89.87 109.87 100.93 Sym.group:    1
1.0
    4.107060    -0.082978    -3.283256
   -0.823881     3.694528     0.025996
    1.155649     0.242012     3.397204
  La  Ga   H
   2   1  12
Direct
    0.515347     0.994687     0.856963 
    0.076734     0.413538     0.134566 
    0.877929     0.846894     0.536497 
    0.706450     0.542330     0.771391 
    0.152781     0.171886     0.673704 
    0.472267     0.263457     0.334542 
    0.459155     0.471178     0.570708 
    0.359202     0.451877     0.777782 
    0.249316     0.960432     0.224557 
    0.928257     0.882470     0.063326 
    0.140146     0.644727     0.665506 
    0.704609     0.542589     0.123322 
    0.492927     0.745301     0.347383 
    0.469384     0.463510     0.111098 
    0.763134     0.250021     0.479533 
EA184   3.724  3.725  5.324 69.86 110.06 89.48 Sym.group:    1
1.0
    3.724433     0.013178    -0.007695
    0.020395     3.725136     0.014625
   -1.823021     1.824617     4.657588
  La  Ga   H
   2   1  12
Direct
    0.815232     0.188770     0.625485 
    0.183109     0.819193     0.368643 
    0.490280     0.501786     0.997089 
    0.289412     0.371764     0.259682 
    0.702793     0.634221     0.737597 
    0.029856     0.630725     0.739601 
    0.958859     0.378300     0.251502 
    0.372496     0.968256     0.739806 
    0.628288     0.709378     0.257176 
    0.624333     0.038099     0.254141 
    0.368747     0.296709     0.737153 
    0.985871     0.249474     0.997231 
    0.988076     0.758465     0.996938 
    0.753886     0.998708     0.997104 
    0.245576     0.999301     0.997034 
EA185   2.898  3.103  8.165 89.90 89.98 62.85 Sym.group:    1
1.0
    1.417730    -2.526942     0.030095
    3.100834     0.116116     0.011618
   -0.019548     0.083506     8.164331
  La  Ga   H
   2   1  12
Direct
    0.000703     0.005927     0.833849 
    0.002972     0.001008     0.160098 
    0.999292     0.002835     0.494874 
    0.991290     0.505479     0.545384 
    0.495996     0.005171     0.623476 
    0.498816     0.505137     0.656731 
    0.491561     0.497061     0.470082 
    0.001512     0.497923     0.338073 
    0.499446     0.998772     0.366498 
    0.674666     0.654935     0.997221 
    0.328964     0.351742     0.997671 
    0.654815     0.596875     0.299141 
    0.261399     0.402642     0.698456 
    0.726188     0.619996     0.704298 
    0.349792     0.398373     0.294692 
EA186   4.470  4.407  4.467 61.81 61.77 61.82 Sym.group:    1
1.0
    4.454182     0.303705     0.218057
    1.801391     4.012438     0.273031
    1.847115     1.224299     3.878550
  La  Ga   H
   2   1  12
Direct
    0.623664     0.615878     0.626794 
    0.378315     0.375363     0.380744 
    0.000548     0.994667     0.001414 
    0.307599     0.950730     0.309289 
    0.303442     0.295252     0.974299 
    0.966428     0.292495     0.310369 
    0.695089     0.031862     0.699121 
    0.695897     0.695352     0.042796 
    0.033004     0.693630     0.702794 
    0.068239     0.545585     0.082658 
    0.072529     0.062191     0.560846 
    0.562357     0.073450     0.064398 
    0.933370     0.442555     0.926639 
    0.932204     0.928145     0.434606 
    0.437908     0.933466     0.928416 
EA187   4.212  4.213  4.744 63.92 115.73 89.58 Sym.group:    5
1.0
    4.211883     0.013232     0.005959
    0.017572     4.212976     0.008948
   -2.071431     2.085870     3.723034
  La  Ga   H
   2   1  12
Direct
    0.755432     0.750177     0.500744 
    0.256438     0.251180     0.500529 
    0.505464     0.500894     0.000887 
    0.110370     0.319865     0.994805 
    0.897202     0.684121     0.999231 
    0.687172     0.893625     0.001526 
    0.323368     0.104431     0.007295 
    0.109313     0.686350     0.996926 
    0.899208     0.318692     0.998732 
    0.687281     0.107577     0.001270 
    0.323218     0.893134     0.006012 
    0.137476     0.777623     0.263279 
    0.121431     0.965035     0.260805 
    0.967274     0.125854     0.738404 
    0.781049     0.132201     0.738591 
EA188   5.710  5.677  4.213 89.82 90.14 89.69 Sym.group:    1
1.0
    5.710178     0.052979    -0.024591
   -0.021356     5.676623     0.030753
    0.007918    -0.009743     4.212514
  La  Ga   H
   4   2  24
Direct
    0.170258     0.826995     0.002874 
    0.670987     0.670696     0.498690 
    0.322186     0.325938     0.500823 
    0.824140     0.173403     0.999656 
    0.994847     0.998632     0.500925 
    0.494928     0.500294     0.000151 
    0.354085     0.024384     0.289405 
    0.855415     0.472807     0.210676 
    0.141663     0.529530     0.217247 
    0.644506     0.969947     0.281920 
    0.975025     0.642569     0.709975 
    0.472257     0.862243     0.784894 
    0.532948     0.150762     0.776773 
    0.031516     0.350729     0.724514 
    0.641515     0.964516     0.725314 
    0.136783     0.534009     0.775860 
    0.855867     0.467798     0.776418 
    0.355540     0.029359     0.725190 
    0.028592     0.353523     0.277007 
    0.536487     0.152837     0.229064 
    0.475922     0.864842     0.208202 
    0.981236     0.648044     0.308655 
    0.700543     0.801515     0.998091 
    0.200852     0.698938     0.502941 
    0.807784     0.299477     0.500896 
    0.309006     0.197337     0.002021 
    0.196408     0.301173     0.998931 
    0.693506     0.198581     0.498178 
    0.302200     0.806919     0.503778 
    0.800131     0.688924     0.000693 
EA189   3.958  4.096  9.425 96.23 98.49 62.49 Sym.group:    1
1.0
    3.956228    -0.053652     0.097237
    1.924481     3.554478     0.664301
   -1.642332    -1.983291     9.066806
  La  Ga   H
   4   2  24
Direct
    0.081696     0.159589     0.298459 
    0.113681     0.798914     0.753942 
    0.301390     0.489120     0.014986 
    0.680839     0.832462     0.138981 
    0.857496     0.569606     0.524280 
    0.961621     0.143987     0.996727 
    0.577208     0.206187     0.351947 
    0.184778     0.600412     0.262517 
    0.603840     0.691393     0.346874 
    0.480097     0.342159     0.219218 
    0.064779     0.682845     0.352224 
    0.498918     0.597870     0.265271 
    0.702222     0.741229     0.874728 
    0.184192     0.274511     0.808850 
    0.642339     0.304462     0.840390 
    0.456264     0.936261     0.920865 
    0.885737     0.484394     0.846695 
    0.466533     0.190633     0.795739 
    0.467225     0.472976     0.458008 
    0.918203     0.102455     0.498380 
    0.321376     0.133351     0.507807 
    0.367288     0.586171     0.531423 
    0.990030     0.900973     0.451975 
    0.512059     0.020319     0.464620 
    0.700690     0.557214     0.713151 
    0.021149     0.315123     0.674400 
    0.527513     0.283909     0.650289 
    0.283905     0.022806     0.618184 
    0.683525     0.116345     0.603089 
    0.504254     0.850834     0.650574 
EA190   5.090  5.244  5.286 92.46 107.49 91.85 Sym.group:    1
1.0
    5.036563    -0.100068    -0.730634
   -0.084688     5.241755    -0.119257
   -0.851559    -0.122354     5.215738
  La  Ga   H
   4   2  24
Direct
    0.809633     0.763850     0.709181 
    0.714193     0.373314     0.267912 
    0.319314     0.753186     0.210953 
    0.197997     0.160104     0.776694 
    0.426282     0.444569     0.573395 
    0.944723     0.055272     0.110568 
    0.040216     0.525984     0.575236 
    0.126004     0.411745     0.351703 
    0.940874     0.709696     0.347598 
    0.831059     0.358825     0.712362 
    0.644458     0.687696     0.057840 
    0.599759     0.437997     0.882662 
    0.353341     0.668173     0.850278 
    0.301964     0.380603     0.114281 
    0.565758     0.090623     0.676147 
    0.675938     0.990224     0.376793 
    0.402782     0.133196     0.432364 
    0.361632     0.835123     0.618274 
    0.428574     0.852353     0.887307 
    0.382970     0.120141     0.169698 
    0.663850     0.866804     0.102158 
    0.631243     0.111245     0.853219 
    0.930545     0.872625     0.389047 
    0.781848     0.129238     0.575837 
    0.181731     0.808470     0.565118 
    0.181611     0.087125     0.395892 
    0.913565     0.405139     0.894098 
    0.911206     0.615939     0.088919 
    0.097317     0.360909     0.113249 
    0.184546     0.566659     0.818995 
EA191   5.915  5.962  4.294 89.36 90.00 119.57 Sym.group:    1
1.0
    2.938512    -5.133102    -0.085167
    3.038450     5.129189     0.071345
    0.058204    -0.038310     4.293869
  La  Ga   H
   4   2  24
Direct
    0.327887     0.656681     0.915611 
    0.832492     0.167198     0.447209 
    0.827918     0.654303     0.446329 
    0.335545     0.171830     0.448204 
    0.647644     0.297506     0.929917 
    0.008906     0.013037     0.962136 
    0.105598     0.546545     0.519863 
    0.448796     0.549830     0.529599 
    0.453277     0.900709     0.542182 
    0.546889     0.777285     0.491349 
    0.221772     0.785777     0.510292 
    0.217712     0.443759     0.510880 
    0.178077     0.828821     0.220655 
    0.166228     0.339383     0.196366 
    0.651210     0.826772     0.220310 
    0.153971     0.847456     0.709965 
    0.145591     0.301677     0.721330 
    0.703989     0.846306     0.720607 
    0.550365     0.954612     0.173656 
    0.961872     0.555730     0.064942 
    0.470931     0.504884     0.225571 
    0.409756     0.958676     0.176804 
    0.033337     0.502308     0.223856 
    0.597385     0.564693     0.064127 
    0.333461     0.015071     0.891905 
    0.967292     0.326343     0.880240 
    0.694114     0.669432     0.888731 
    0.696903     0.024932     0.909965 
    0.964238     0.679965     0.912828 
    0.348601     0.311224     0.907628 
EA192   6.196  6.197  3.479 90.05 89.94 89.97 Sym.group:   81
1.0
    6.195299    -0.049614     0.021489
    0.052835     6.196908     0.044552
   -0.008452    -0.027734     3.478576
  La  Ga   H
   4   2  24
Direct
    0.715554     0.143874     0.500681 
    0.283313     0.856848     0.499656 
    0.142997     0.284217     0.504488 
    0.856193     0.716889     0.504083 
    0.499552     0.500523     0.503851 
    0.999719     0.000432     0.001997 
    0.915923     0.252907     0.009129 
    0.082955     0.747416     0.007783 
    0.252831     0.083833     0.995949 
    0.746713     0.917538     0.996885 
    0.703136     0.634340     0.014159 
    0.296380     0.367161     0.013219 
    0.632870     0.299390     0.992149 
    0.366550     0.702153     0.990243 
    0.423409     0.123823     0.738203 
    0.574936     0.877051     0.738683 
    0.123085     0.576209     0.265882 
    0.876345     0.424510     0.267163 
    0.141851     0.495066     0.976376 
    0.860109     0.504650     0.973099 
    0.494401     0.858737     0.026782 
    0.506051     0.142857     0.029132 
    0.342278     0.584499     0.158122 
    0.659632     0.416893     0.160360 
    0.585672     0.657282     0.849937 
    0.415131     0.341615     0.847439 
    0.164876     0.576001     0.744120 
    0.833836     0.425285     0.744658 
    0.575055     0.835151     0.259785 
    0.424110     0.166167     0.259681 
EA193   4.854  5.628  4.849 90.18 89.29 90.33 Sym.group:    1
1.0
    4.853845     0.008588    -0.010739
   -0.042227     5.627963     0.000516
    0.070436    -0.015448     4.848343
  La  Ga   H
   4   2  24
Direct
    0.752290     0.595827     0.755353 
    0.250084     0.595506     0.252083 
    0.252831     0.403213     0.750515 
    0.747424     0.401545     0.255849 
    0.997052     0.998678     0.258190 
    0.001192     0.000308     0.729653 
    0.325261     0.942783     0.161781 
    0.675312     0.944007     0.841213 
    0.674615     0.058751     0.149156 
    0.324830     0.056931     0.844233 
    0.426296     0.144636     0.459868 
    0.574059     0.142091     0.536470 
    0.577952     0.846430     0.461612 
    0.429437     0.846604     0.541395 
    0.498493     0.871967     0.158902 
    0.504000     0.872339     0.839960 
    0.502316     0.127260     0.156008 
    0.496936     0.128819     0.836752 
    0.631531     0.252439     0.867815 
    0.367778     0.251751     0.135457 
    0.368508     0.749149     0.868947 
    0.632497     0.749983     0.139702 
    0.853741     0.737137     0.403071 
    0.154202     0.742087     0.603470 
    0.150433     0.257860     0.401218 
    0.850297     0.258676     0.603621 
    0.880260     0.263738     0.904177 
    0.116546     0.262858     0.098661 
    0.121517     0.738075     0.905003 
    0.888574     0.733095     0.099480 
EA194   5.580  5.613  5.644 104.16 119.57 60.41 Sym.group:    1
1.0
    5.579683     0.000885     0.007767
    2.770860     4.880743     0.032779
   -2.791762    -0.035995     4.905120
  La  Ga   H
   4   2  24
Direct
    0.095114     0.003098     0.479118 
    0.622100     0.997530     0.526921 
    0.901513     0.476417     0.996094 
    0.380238     0.524242     0.003535 
    0.468573     0.500911     0.499087 
    0.036904     0.500958     0.500357 
    0.080820     0.784104     0.696420 
    0.174252     0.214510     0.304671 
    0.128682     0.698910     0.212687 
    0.610834     0.307001     0.785572 
    0.182026     0.024351     0.154773 
    0.040444     0.000718     0.851671 
    0.800181     0.152651     0.992585 
    0.957769     0.849139     0.992034 
    0.558159     0.828184     0.107673 
    0.276876     0.178471     0.891441 
    0.617171     0.108166     0.181493 
    0.544428     0.892697     0.824706 
    0.426409     0.722246     0.786845 
    0.363778     0.279861     0.217291 
    0.847110     0.781490     0.280292 
    0.354349     0.218514     0.719886 
    0.701913     0.122490     0.090940 
    0.730803     0.881766     0.911997 
    0.184278     0.086063     0.883385 
    0.387876     0.912194     0.123208 
    0.489137     0.713312     0.365752 
    0.835347     0.295800     0.628674 
    0.787468     0.378104     0.304365 
    0.851642     0.620869     0.687973 
EA195   4.780  4.782  6.556 90.17 90.15 60.07 Sym.group:    5
1.0
    2.368257    -4.151964     0.013226
    4.782240    -0.018765     0.028303
   -0.057765     0.007442     6.555462
  La  Ga   H
   4   2  24
Direct
    0.666131     0.667197     0.999950 
    0.332628     0.334163     0.001632 
    0.670399     0.663891     0.492059 
    0.336688     0.329020     0.508768 
    0.997724     0.000501     0.842607 
    0.999522     0.001553     0.159720 
    0.619162     0.997438     0.769375 
    0.997579     0.616233     0.767269 
    0.380671     0.619870     0.767947 
    0.383027     0.997285     0.768843 
    0.997887     0.382133     0.768381 
    0.615721     0.386165     0.767333 
    0.615900     0.002698     0.233731 
    0.002920     0.616353     0.233720 
    0.381375     0.618948     0.232803 
    0.381682     0.003143     0.232583 
    0.002969     0.380975     0.233123 
    0.617185     0.380786     0.233329 
    0.777889     0.219341     0.398679 
    0.778700     0.999240     0.398089 
    0.008164     0.769207     0.396036 
    0.224768     0.771862     0.399296 
    0.226304     0.997397     0.396868 
    0.004650     0.217296     0.399983 
    0.000512     0.775085     0.604191 
    0.231144     0.772483     0.605175 
    0.226787     0.994369     0.604612 
    0.001721     0.219913     0.603054 
    0.775612     0.228068     0.607693 
    0.784967     0.994318     0.601475 
EA196   5.165  5.260  5.680 77.22 86.47 118.82 Sym.group:    2
1.0
    2.604732    -4.458917     0.116674
    2.650885     4.501343     0.612143
    0.820328     0.221257     5.616478
  La  Ga   H
   4   2  24
Direct
    0.007976     0.033109     0.252659 
    0.989932     0.963404     0.750237 
    0.376101     0.741757     0.313003 
    0.621417     0.254742     0.688944 
    0.694296     0.411737     0.154438 
    0.303330     0.584715     0.847134 
    0.717107     0.749807     0.079726 
    0.984521     0.682618     0.540786 
    0.430689     0.130310     0.066408 
    0.332897     0.413832     0.604166 
    0.071453     0.449059     0.140548 
    0.654761     0.907692     0.560018 
    0.280786     0.246743     0.923241 
    0.013160     0.313640     0.461407 
    0.568191     0.866097     0.934961 
    0.665560     0.582776     0.397222 
    0.925645     0.546658     0.861863 
    0.344088     0.090944     0.441604 
    0.932201     0.254480     0.920601 
    0.696358     0.153687     0.368196 
    0.623316     0.573085     0.837295 
    0.923965     0.582295     0.369083 
    0.252005     0.875607     0.981973 
    0.317403     0.312476     0.448821 
    0.064497     0.742314     0.083845 
    0.301863     0.843281     0.632977 
    0.374326     0.423876     0.164210 
    0.073828     0.414666     0.633594 
    0.745824     0.115521     0.017306 
    0.681276     0.684293     0.554261 
EA197   5.317  5.046  4.951 82.59 87.02 93.44 Sym.group:    1
1.0
    5.317197    -0.012425    -0.006636
   -0.290888     5.037949    -0.019345
    0.264868     0.673995     4.898249
  La  Ga   H
   4   2  24
Direct
    0.741733     0.114939     0.232967 
    0.251016     0.241789     0.116061 
    0.256570     0.887623     0.762476 
    0.747024     0.763294     0.879809 
    0.967391     0.328096     0.668333 
    0.033934     0.677574     0.325287 
    0.632123     0.417653     0.479106 
    0.357473     0.495398     0.401265 
    0.368504     0.584767     0.519389 
    0.641120     0.510508     0.594714 
    0.426505     0.531000     0.816897 
    0.568280     0.831889     0.523870 
    0.573623     0.473131     0.185202 
    0.432519     0.178108     0.475557 
    0.696515     0.369187     0.896532 
    0.297641     0.883980     0.347484 
    0.302993     0.638361     0.104986 
    0.707335     0.121627     0.646938 
    0.511222     0.194397     0.694544 
    0.476834     0.699266     0.177791 
    0.490854     0.805483     0.306426 
    0.531722     0.297584     0.827102 
    0.066282     0.023408     0.426383 
    0.924941     0.424753     0.007093 
    0.933790     0.979913     0.568516 
    0.069976     0.577675     0.983715 
    0.246879     0.248205     0.532100 
    0.755406     0.524419     0.243458 
    0.754223     0.755364     0.464549 
    0.249688     0.475376     0.750932 
EA198   5.505  5.079  4.723 86.66 85.66 90.94 Sym.group:    1
1.0
    5.503194     0.005508     0.129804
   -0.091573     5.076973     0.117764
    0.246404     0.170058     4.713635
  La  Ga   H
   4   2  24
Direct
    0.794469     0.058061     0.967891 
    0.007038     0.560884     0.017330 
    0.291929     0.056747     0.022938 
    0.504429     0.550040     0.964522 
    0.505794     0.285422     0.509057 
    0.517745     0.770743     0.441227 
    0.713664     0.466505     0.281280 
    0.731018     0.586112     0.613021 
    0.559619     0.074141     0.286448 
    0.544128     0.918448     0.730837 
    0.250441     0.044947     0.501533 
    0.217655     0.790449     0.709029 
    0.251321     0.368393     0.300417 
    0.235551     0.585267     0.641629 
    0.782612     0.051495     0.528498 
    0.817659     0.790170     0.309510 
    0.811692     0.372759     0.684954 
    0.932427     0.560052     0.442659 
    0.256375     0.704721     0.277963 
    0.245304     0.403538     0.693939 
    0.131400     0.949145     0.412108 
    0.107925     0.170951     0.673093 
    0.008626     0.234278     0.296229 
    0.011836     0.833142     0.683519 
    0.997020     0.874506     0.306439 
    0.924936     0.045231     0.552055 
    0.076392     0.551761     0.457351 
    0.979357     0.308594     0.663978 
    0.860495     0.293421     0.325761 
    0.838499     0.744275     0.684237 
EA199   5.348  5.621  5.633 79.58 117.90 117.55 Sym.group:    1
1.0
    2.933738     2.283679    -3.843910
   -1.637064     3.239413     4.292235
    2.716018    -2.498763     4.255303
  La  Ga   H
   4   2  24
Direct
    0.603628     0.829358     0.478125 
    0.305067     0.175380     0.527402 
    0.803010     0.526082     0.178361 
    0.105569     0.477695     0.826672 
    0.207528     0.000565     0.000230 
    0.711265     0.002799     0.004966 
    0.899528     0.229671     0.449505 
    0.208448     0.761587     0.544380 
    0.699591     0.539929     0.760740 
    0.400040     0.460170     0.242157 
    0.211035     0.708246     0.114174 
    0.395403     0.295688     0.894791 
    0.897548     0.894088     0.298159 
    0.719641     0.114344     0.715314 
    0.678717     0.240934     0.451314 
    0.994556     0.764771     0.551725 
    0.496851     0.560391     0.770241 
    0.173308     0.446247     0.233089 
    0.315478     0.893034     0.809190 
    0.604734     0.109840     0.194195 
    0.113920     0.194366     0.110131 
    0.816568     0.807065     0.894149 
    0.690845     0.298022     0.889469 
    0.507743     0.707848     0.111286 
    0.011460     0.109780     0.705362 
    0.186786     0.884886     0.296442 
    0.095073     0.399406     0.465283 
    0.234883     0.576112     0.533829 
    0.732936     0.538436     0.596307 
    0.595626     0.463512     0.402844 
EA200   3.765  3.918  8.926 94.25 85.12 92.25 Sym.group:    1
1.0
    3.727518    -0.496633     0.174916
    0.369780     3.898606    -0.124879
    0.294244    -0.407894     8.911853
  La  Ga   H
   4   2  24
Direct
    0.287184     0.736820     0.221049 
    0.807619     0.225240     0.718078 
    0.301236     0.737552     0.779169 
    0.787375     0.243116     0.274592 
    0.863542     0.982427     0.995525 
    0.398410     0.500207     0.497187 
    0.812857     0.682435     0.125261 
    0.779571     0.708209     0.850026 
    0.461343     0.131442     0.919540 
    0.083430     0.352286     0.074735 
    0.270163     0.245784     0.854293 
    0.314051     0.226023     0.150250 
    0.465768     0.071558     0.079180 
    0.990234     0.440345     0.915022 
    0.955423     0.614101     0.427025 
    0.584922     0.874625     0.577676 
    0.329943     0.175675     0.624616 
    0.260260     0.221833     0.358770 
    0.000851     0.563709     0.585312 
    0.479271     0.956840     0.417894 
    0.761557     0.754223     0.335163 
    0.823468     0.709166     0.645984 
    0.078346     0.875210     0.476152 
    0.705639     0.093962     0.490261 
    0.164147     0.955056     0.558165 
    0.915218     0.215105     0.487846 
    0.625794     0.405293     0.968055 
    0.182292     0.560929     0.997301 
    0.654630     0.453736     0.060912 
    0.372368     0.724899     0.997433 
EA201   5.438  5.293  5.632 97.17 67.28 118.31 Sym.group:    1
1.0
    3.174228    -4.406577     0.281706
    2.318491     4.751981    -0.240901
    1.516024    -1.254656     5.276735
  La  Ga   H
   4   2  24
Direct
    0.650335     0.072182     0.230941 
    0.377019     0.350148     0.138541 
    0.224935     0.707003     0.802863 
    0.934066     0.018243     0.734304 
    0.880821     0.735685     0.290487 
    0.776138     0.394397     0.620431 
    0.500038     0.742400     0.996213 
    0.947212     0.072870     0.377339 
    0.528930     0.679624     0.366691 
    0.054779     0.993727     0.027147 
    0.252789     0.052326     0.417988 
    0.008018     0.439287     0.270266 
    0.261483     0.685212     0.228881 
    0.576254     0.380719     0.442883 
    0.085239     0.321336     0.984955 
    0.831198     0.479900     0.095197 
    0.130617     0.407629     0.514633 
    0.632824     0.721556     0.602828 
    0.261545     0.902046     0.138043 
    0.368629     0.077474     0.597573 
    0.804909     0.334493     0.891991 
    0.564420     0.582848     0.765486 
    0.651321     0.032110     0.590802 
    0.783637     0.649750     0.921518 
    0.338723     0.375516     0.737702 
    0.338130     0.397886     0.577960 
    0.508824     0.048980     0.919952 
    0.051587     0.735399     0.512213 
    0.283647     0.667770     0.378816 
    0.352349     0.146229     0.785507 
EA202   3.770  6.884  5.360 100.20 78.33 80.55 Sym.group:    1
1.0
    3.765660     0.148229    -0.099886
    0.868430     6.825222     0.220644
    1.269673    -1.281802     5.047733
  La  Ga   H
   4   2  24
Direct
    0.839857     0.393364     0.235458 
    0.367990     0.039124     0.171748 
    0.309131     0.438812     0.778129 
    0.834239     0.065375     0.679662 
    0.929103     0.761553     0.235753 
    0.760593     0.694303     0.683442 
    0.168194     0.190618     0.901968 
    0.830274     0.025040     0.301131 
    0.595167     0.208844     0.436912 
    0.884126     0.090410     0.049628 
    0.426557     0.643850     0.295558 
    0.303946     0.355288     0.383166 
    0.330481     0.534136     0.166801 
    0.462185     0.632232     0.477365 
    0.465487     0.293640     0.047785 
    0.756285     0.568369     0.941277 
    0.088256     0.274901     0.502850 
    0.349185     0.134299     0.558418 
    0.353210     0.738679     0.992524 
    0.227667     0.733248     0.660023 
    0.805540     0.357064     0.866875 
    0.375240     0.909745     0.767102 
    0.858766     0.399280     0.615559 
    0.862837     0.878382     0.959969 
    0.299898     0.037145     0.800727 
    0.495611     0.899124     0.478993 
    0.536047     0.736221     0.148310 
    0.236404     0.834469     0.423431 
    0.141698     0.533404     0.461718 
    0.167296     0.756903     0.830066 
EA203   2.839  2.831 16.134 90.00 90.02 89.99 Sym.group:    1
1.0
    2.830774    -0.048010    -0.212546
    0.051698     2.829887     0.042107
    1.196678    -0.262008    16.087464
  La  Ga   H
   4   2  24
Direct
    0.004379     0.998881     0.841031 
    0.513631     0.488692     0.154587 
    0.488994     0.504321     0.654012 
    0.003436     0.993479     0.340184 
    0.980602     0.002930     0.505655 
    0.521117     0.492943     0.989232 
    0.990015     0.004691     0.625551 
    0.503610     0.493386     0.388181 
    0.508418     0.989023     0.247601 
    0.980281     0.004895     0.715035 
    0.508681     0.491981     0.281687 
    0.481929     0.004753     0.563921 
    0.984873     0.498935     0.747267 
    0.989400     0.497392     0.436840 
    0.502115     0.499537     0.869372 
    0.014570     0.987341     0.106576 
    0.010625     0.491198     0.247079 
    0.513228     0.498724     0.780162 
    0.010669     0.988126     0.213016 
    0.016524     0.497555     0.931042 
    0.508598     0.004097     0.748022 
    0.517636     0.989948     0.057869 
    0.504339     0.995154     0.930938 
    0.022862     0.993996     0.026913 
    0.017110     0.490263     0.058022 
    0.015007     0.992138     0.978257 
    0.989890     0.503554     0.564038 
    0.475702     0.506949     0.467940 
    0.494364     0.002280     0.436707 
    0.486474     0.502904     0.516586 
EA204   4.830  4.829  5.669 90.01 89.98 90.00 Sym.group:  129
1.0
    4.830325     0.025495     0.007292
   -0.025368     4.828755    -0.031103
   -0.007068     0.035751     5.668604
  La  Ga   H
   4   2  24
Direct
    0.001858     0.501618     0.857718 
    0.501844     0.001664     0.141331 
    0.002102     0.501468     0.373874 
    0.501683     0.001761     0.625178 
    0.001897     0.001664     0.000030 
    0.501783     0.501642     0.999039 
    0.209272     0.709832     0.131762 
    0.709490     0.793697     0.867223 
    0.294374     0.209780     0.867324 
    0.794213     0.293691     0.131791 
    0.293409     0.794498     0.867286 
    0.793305     0.708590     0.131833 
    0.210290     0.294424     0.131705 
    0.710395     0.208679     0.867257 
    0.668076     0.595477     0.625634 
    0.168126     0.907752     0.373430 
    0.836149     0.094836     0.373258 
    0.335878     0.408001     0.625635 
    0.408424     0.335660     0.373439 
    0.907563     0.168374     0.625329 
    0.095499     0.835521     0.625604 
    0.595984     0.668262     0.373539 
    0.670586     0.404550     0.626617 
    0.170805     0.098988     0.372703 
    0.832542     0.903851     0.372607 
    0.332702     0.599234     0.626414 
    0.599479     0.332827     0.372288 
    0.098696     0.169767     0.627005 
    0.904611     0.833032     0.626828 
    0.405022     0.669857     0.372139 
EA205   2.833  3.452 13.599 92.37 93.60 90.45 Sym.group:    1
1.0
    2.829487     0.134774     0.012250
   -0.191662     3.439270     0.223123
   -0.841717    -1.486146    13.491303
  La  Ga   H
   4   2  24
Direct
    0.187237     0.786511     0.602079 
    0.497893     0.152865     0.940445 
    0.034201     0.544095     0.107204 
    0.576939     0.207322     0.259524 
    0.640295     0.259464     0.466434 
    0.117053     0.751325     0.400891 
    0.069268     0.719794     0.257918 
    0.021944     0.008300     0.037746 
    0.045402     0.040380     0.166313 
    0.166499     0.275467     0.529317 
    0.703493     0.249038     0.593743 
    0.505848     0.682842     0.015473 
    0.108776     0.262752     0.363263 
    0.596322     0.724041     0.334104 
    0.534788     0.032318     0.102345 
    0.464536     0.641262     0.864379 
    0.971685     0.138970     0.720416 
    0.597470     0.400317     0.680464 
    0.372910     0.185686     0.787822 
    0.597223     0.332378     0.796136 
    0.749959     0.808950     0.821507 
    0.150970     0.602720     0.748215 
    0.314260     0.790089     0.757157 
    0.736508     0.601774     0.713058 
    0.159034     0.588750     0.868406 
    0.979716     0.653745     0.957453 
    0.252243     0.298772     0.676815 
    0.967115     0.361896     0.836986 
    0.952134     0.968797     0.827135 
    0.746328     0.992985     0.712837 
EA206   3.823  3.824  8.825 89.82 90.30 89.95 Sym.group:    4
1.0
    3.823096    -0.018055     0.012157
    0.021596     3.823713    -0.005073
   -0.073613     0.039422     8.824830
  La  Ga   H
   4   2  24
Direct
    0.500148     0.505504     0.847926 
    0.503830     0.500481     0.146937 
    0.995499     0.001173     0.647014 
    0.001223     0.998429     0.348009 
    0.503257     0.498968     0.498693 
    0.997390     0.001629     0.997539 
    0.195013     0.499839     0.660065 
    0.201312     0.499338     0.335153 
    0.800404     0.499436     0.336977 
    0.801004     0.500084     0.660827 
    0.499648     0.802505     0.334363 
    0.495254     0.196590     0.661425 
    0.495276     0.803332     0.658248 
    0.499268     0.198640     0.334505 
    0.300989     0.007014     0.834650 
    0.303200     0.000606     0.159476 
    0.701002     0.000475     0.158488 
    0.697743     0.006726     0.834376 
    0.004927     0.697919     0.160581 
    0.000657     0.307702     0.834287 
    0.000555     0.702644     0.837410 
    0.005298     0.303866     0.161851 
    0.493781     0.005459     0.943397 
    0.496182     0.000086     0.047702 
    0.003397     0.497618     0.052010 
    0.001143     0.499580     0.947564 
    0.001348     0.502737     0.548535 
    0.010873     0.497469     0.444270 
    0.503296     0.996590     0.443284 
    0.492951     0.003217     0.547679 
EA207   3.689  3.742  4.967 90.57 74.76 90.18 Sym.group:    1
1.0
    3.682600     0.051090     0.212649
   -0.062551     3.740937    -0.020183
    1.027449    -0.006307     4.860061
  La  Ga   H
   2   1  12
Direct
    0.060608     0.917641     0.116114 
    0.829020     0.417444     0.777207 
    0.454963     0.423747     0.371876 
    0.259440     0.415838     0.009658 
    0.555171     0.127073     0.121687 
    0.900675     0.420834     0.326538 
    0.193443     0.930264     0.684704 
    0.587203     0.923073     0.447135 
    0.347205     0.670596     0.723762 
    0.733226     0.914563     0.549696 
    0.337941     0.146205     0.721127 
    0.602260     0.916002     0.838118 
    0.109734     0.119722     0.463469 
    0.552869     0.711798     0.123007 
    0.105864     0.730386     0.469818 
EA208   4.507  3.777  4.574 94.04 62.47 107.46 Sym.group:    1
1.0
    4.506442     0.074473     0.019758
   -1.192767     3.583686    -0.010899
    2.090535     0.368696     4.051841
  La  Ga   H
   2   1  12
Direct
    0.883301     0.516867     0.295126 
    0.599136     0.914072     0.010605 
    0.273843     0.937498     0.663032 
    0.406969     0.363223     0.240870 
    0.330223     0.549328     0.441389 
    0.709863     0.962367     0.436237 
    0.155812     0.991860     0.382456 
    0.378508     0.341212     0.051458 
    0.091831     0.048136     0.092907 
    0.886946     0.553543     0.809955 
    0.309634     0.548140     0.812226 
    0.916227     0.115997     0.525465 
    0.552476     0.312111     0.762544 
    0.996857     0.306280     0.630262 
    0.108849     0.314439     0.810997 
EA209   4.681  3.593  4.175 86.00 72.78 90.53 Sym.group:    1
1.0
    4.666119    -0.358815    -0.116829
    0.246486     3.579287     0.187144
    1.338734    -0.006311     3.954795
  La  Ga   H
   2   1  12
Direct
    0.862376     0.242535     0.514895 
    0.325365     0.864103     0.654537 
    0.568109     0.490029     0.098943 
    0.126576     0.372099     0.775737 
    0.118370     0.623616     0.148327 
    0.748737     0.747395     0.322734 
    0.413350     0.355881     0.822228 
    0.299457     0.375445     0.426551 
    0.785376     0.103754     0.053735 
    0.201000     0.062656     0.129392 
    0.026552     0.058317     0.056311 
    0.432908     0.921650     0.117541 
    0.037833     0.738756     0.418113 
    0.031339     0.519834     0.024312 
    0.815842     0.737828     0.785583 
EA210   3.695  3.769  5.018 101.72 73.32 89.73 Sym.group:    1
1.0
    3.695225     0.033756    -0.019013
   -0.017047     3.768925    -0.046004
    1.472930    -0.955685     4.700758
  La  Ga   H
   2   1  12
Direct
    0.634789     0.375550     0.105830 
    0.857148     0.957459     0.536134 
    0.199952     0.816662     0.911507 
    0.121334     0.168335     0.194730 
    0.429960     0.960249     0.326988 
    0.559894     0.441947     0.544615 
    0.355215     0.713482     0.513214 
    0.644133     0.496776     0.704739 
    0.362621     0.220177     0.490045 
    0.114009     0.423938     0.425792 
    0.633227     0.832948     0.928939 
    0.984705     0.504907     0.724010 
    0.256125     0.218935     0.791133 
    0.119404     0.587981     0.166291 
    0.735944     0.892762     0.168628 
EA211   4.774  3.567  4.161 68.87 87.98 85.31 Sym.group:    1
1.0
    4.772938    -0.069335    -0.094297
    0.344579     3.549940     0.062425
    0.244684     1.414804     3.905248
  La  Ga   H
   2   1  12
Direct
    0.666559     0.309033     0.407370 
    0.252758     0.952626     0.176598 
    0.977255     0.631856     0.803515 
    0.318719     0.460643     0.667602 
    0.359853     0.510592     0.025821 
    0.057528     0.453145     0.244881 
    0.655922     0.096209     0.967370 
    0.968839     0.156997     0.777877 
    0.150585     0.347320     0.449186 
    0.287326     0.037201     0.649385 
    0.801846     0.881926     0.141041 
    0.629401     0.696170     0.769033 
    0.419536     0.841165     0.702735 
    0.883288     0.773583     0.399904 
    0.544990     0.326632     0.884902 
EA212   3.780  4.312  4.500 73.13 80.27 104.21 Sym.group:    1
1.0
    3.778495     0.106578     0.031152
   -1.176869     4.147827     0.066762
    0.684670     1.484811     4.192722
  La  Ga   H
   2   1  12
Direct
    0.266576     0.961155     0.436466 
    0.938976     0.469163     0.242922 
    0.385084     0.391328     0.747337 
    0.827144     0.664971     0.820814 
    0.125244     0.010204     0.011857 
    0.622535     0.086918     0.715101 
    0.692079     0.158542     0.013923 
    0.717564     0.805505     0.462915 
    0.944040     0.458128     0.738137 
    0.508955     0.685621     0.189922 
    0.461596     0.426707     0.089246 
    0.374495     0.764423     0.854414 
    0.712588     0.955397     0.098747 
    0.886880     0.124545     0.687194 
    0.854628     0.840654     0.867447 
EA213   4.334  4.737  3.272 82.15 92.13 84.78 Sym.group:    1
1.0
    4.331466     0.082610     0.113648
    0.340564     4.724380     0.010441
   -0.215246     0.456690     3.232994
  La  Ga   H
   2   1  12
Direct
    0.259233     0.903722     0.798207 
    0.591173     0.369684     0.813788 
    0.753708     0.838790     0.287306 
    0.443701     0.128905     0.308622 
    0.860504     0.097252     0.589167 
    0.976129     0.134381     0.179281 
    0.230387     0.305556     0.403716 
    0.838500     0.451067     0.313606 
    0.182705     0.500229     0.004989 
    0.102324     0.363134     0.578913 
    0.809146     0.734593     0.788819 
    0.995655     0.539745     0.062743 
    0.127437     0.697820     0.354302 
    0.413317     0.631302     0.302650 
    0.054761     0.249001     0.999739 
EA214   5.189  3.709  3.755 91.02 76.85 110.81 Sym.group:    1
1.0
    3.948152    -3.342496    -0.411116
    1.242005     3.490738     0.178291
    0.983735    -0.603865     3.573516
  La  Ga   H
   2   1  12
Direct
    0.709542     0.795177     0.137530 
    0.272711     0.207573     0.672205 
    0.149713     0.625245     0.198682 
    0.121518     0.093952     0.214816 
    0.855509     0.347059     0.943890 
    0.898500     0.698857     0.577138 
    0.464400     0.161929     0.106240 
    0.756321     0.046600     0.627357 
    0.508613     0.830773     0.714685 
    0.700993     0.517752     0.637543 
    0.071743     0.633778     0.777633 
    0.915354     0.205804     0.490764 
    0.673013     0.276168     0.367186 
    0.344998     0.752351     0.505098 
    0.656924     0.275446     0.894239 
EA215   3.857  3.625  5.156 78.47 110.18 90.39 Sym.group:    1
1.0
    3.856566    -0.053790     0.065048
    0.026686     3.624471    -0.032174
   -1.843139     1.085949     4.691208
  La  Ga   H
   2   1  12
Direct
    0.514500     0.097321     0.015993 
    0.226736     0.658282     0.406405 
    0.832417     0.112806     0.609285 
    0.057306     0.224025     0.201847 
    0.990565     0.967036     0.971912 
    0.209105     0.585504     0.995469 
    0.671333     0.473411     0.296819 
    0.252943     0.098916     0.599153 
    0.175857     0.621173     0.800163 
    0.747353     0.765003     0.446025 
    0.392578     0.177206     0.356167 
    0.862354     0.590315     0.987458 
    0.745340     0.567285     0.104899 
    0.587797     0.787307     0.749470 
    0.732906     0.451176     0.736342 
EA216   3.717  3.777  4.916 83.45 74.41 90.81 Sym.group:    1
1.0
    3.713231    -0.153436     0.060187
    0.102861     3.775691     0.000333
    1.267537     0.526301     4.720157
  La  Ga   H
   2   1  12
Direct
    0.581336     0.368871     0.447238 
    0.797462     0.818823     0.823153 
    0.234420     0.276426     0.057475 
    0.700520     0.317850     0.824178 
    0.329164     0.676051     0.190416 
    0.096427     0.106941     0.424035 
    0.006469     0.759160     0.179966 
    0.468475     0.915857     0.225447 
    0.094466     0.614490     0.462696 
    0.014714     0.354504     0.654019 
    0.809524     0.269228     0.043699 
    0.365467     0.850431     0.548315 
    0.292740     0.602679     0.788196 
    0.296696     0.022989     0.807758 
    0.826467     0.883466     0.253661 
EA217   5.101  3.740  3.722 89.67 77.60 108.03 Sym.group:    1
1.0
    5.095010    -0.021659    -0.242601
   -1.130538     3.553427     0.281382
    0.971337     0.047314     3.593147
  La  Ga   H
   2   1  12
Direct
    0.210501     0.234511     0.222747 
    0.651661     0.983251     0.664585 
    0.833032     0.565189     0.106084 
    0.052031     0.947959     0.761142 
    0.288450     0.080812     0.694842 
    0.538304     0.453140     0.477694 
    0.433494     0.818189     0.234620 
    0.955743     0.632547     0.504079 
    0.227054     0.740646     0.999339 
    0.252116     0.558197     0.699544 
    0.266345     0.723064     0.508665 
    0.567502     0.106404     0.191108 
    0.816530     0.007987     0.117286 
    0.011180     0.325654     0.795078 
    0.595081     0.465107     0.849425 
EA218   4.258  4.264  4.281 69.81 69.88 70.64 Sym.group:    1
1.0
    4.257476    -0.041352     0.033046
    1.452101     4.008731     0.027958
    1.452683     1.018256     3.896204
  La  Ga   H
   2   1  12
Direct
    0.718615     0.714898     0.717203 
    0.286754     0.281733     0.289720 
    0.002067     0.998758     0.003538 
    0.424150     0.768128     0.422518 
    0.416432     0.421899     0.775473 
    0.774824     0.418616     0.426525 
    0.578980     0.226782     0.585675 
    0.585218     0.578718     0.232226 
    0.230512     0.576129     0.581346 
    0.248867     0.803189     0.253567 
    0.253645     0.247622     0.808806 
    0.807311     0.244672     0.254208 
    0.757406     0.194251     0.750826 
    0.755263     0.745695     0.197745 
    0.198826     0.757614     0.748358 
EA219   3.712  4.820  3.834 90.26 92.06 103.58 Sym.group:    1
1.0
    3.649107    -0.010517     0.682858
   -1.146673     4.681238     0.047970
   -0.839381    -0.261732     3.732100
  La  Ga   H
   2   1  12
Direct
    0.919039     0.214508     0.151594 
    0.079196     0.847800     0.646354 
    0.481430     0.419160     0.658914 
    0.250431     0.914974     0.152655 
    0.097314     0.700625     0.147795 
    0.609753     0.954117     0.747944 
    0.422009     0.149035     0.379806 
    0.949109     0.298000     0.655098 
    0.270017     0.576016     0.361211 
    0.781825     0.568960     0.980387 
    0.606618     0.792807     0.066725 
    0.401891     0.170759     0.952805 
    0.270081     0.576311     0.957257 
    0.585281     0.805462     0.285559 
    0.756511     0.538372     0.332174 
EA220   3.868  3.859  5.184 80.73 80.64 60.61 Sym.group:   12
1.0
   -1.877734     3.368058     0.304725
   -3.846627     0.002337     0.311092
   -0.420478     0.267515     5.160440
  La  Ga   H
   2   1  12
Direct
    0.300896     0.293190     0.283933 
    0.702259     0.698585     0.717697 
    0.001561     0.995882     0.000939 
    0.748998     0.737855     0.101805 
    0.400880     0.767184     0.169584 
    0.774019     0.392705     0.175529 
    0.601809     0.224601     0.833251 
    0.229102     0.598760     0.827235 
    0.253795     0.253446     0.899962 
    0.351399     0.734114     0.419635 
    0.737581     0.352888     0.416413 
    0.889259     0.881973     0.351892 
    0.113185     0.109112     0.649632 
    0.648798     0.258697     0.583104 
    0.266557     0.636112     0.586288 
EA221   4.116  4.107  4.101 82.08 82.91 81.75 Sym.group:    2
1.0
    4.115991    -0.015411     0.005617
    0.604326     4.062447    -0.007625
    0.502655     0.503773     4.038513
  La  Ga   H
   2   1  12
Direct
    0.306399     0.310382     0.308477 
    0.691966     0.690608     0.688896 
    0.999106     0.999426     0.999862 
    0.305997     0.698711     0.997745 
    0.002807     0.300386     0.700925 
    0.693030     0.997251     0.295087 
    0.692361     0.301109     0.999434 
    0.996863     0.699790     0.299756 
    0.304370     0.003293     0.702883 
    0.640962     0.214365     0.655337 
    0.643563     0.649743     0.212974 
    0.214681     0.649596     0.648848 
    0.353907     0.787342     0.344886 
    0.357695     0.350964     0.782882 
    0.783514     0.353075     0.347639 
EA222   3.669  3.727  4.950 90.31 91.18 89.70 Sym.group:    1
1.0
    3.669034     0.020091    -0.014020
   -0.000777     3.727037     0.019812
   -0.083122    -0.053525     4.948757
  La  Ga   H
   2   1  12
Direct
    0.993711     0.999539     0.991283 
    0.495594     0.499764     0.005303 
    0.995198     0.999076     0.492804 
    0.615378     0.232258     0.363910 
    0.377158     0.769780     0.360177 
    0.780420     0.380812     0.653286 
    0.237845     0.614592     0.636756 
    0.371874     0.218855     0.351930 
    0.622897     0.762184     0.359958 
    0.236673     0.377229     0.638612 
    0.781094     0.621513     0.654194 
    0.998869     0.500431     0.160869 
    0.490538     0.999492     0.823568 
    0.999589     0.495416     0.343477 
    0.504682     0.989319     0.642380 
EA223   4.219  4.114  4.214 75.75 72.06 72.26 Sym.group:    1
1.0
    4.182579     0.382339     0.397448
    0.869863     4.010342     0.290860
    0.868008     0.579936     4.082139
  La  Ga   H
   2   1  12
Direct
    0.564737     0.576439     0.573332 
    0.997769     0.979158     0.980195 
    0.295665     0.270752     0.268683 
    0.668235     0.100405     0.399119 
    0.428832     0.661190     0.090941 
    0.114437     0.416290     0.703273 
    0.446544     0.096071     0.723428 
    0.687362     0.441875     0.044763 
    0.094645     0.699259     0.424396 
    0.901732     0.539349     0.842309 
    0.912040     0.844526     0.550553 
    0.647976     0.917901     0.781180 
    0.951377     0.479518     0.140739 
    0.951820     0.146183     0.498526 
    0.472780     0.902626     0.131118 
EA224   2.697  2.674  9.895 86.24 87.32 113.06 Sym.group:    1
1.0
    1.474059    -2.216229     0.434450
    1.464801     2.236278    -0.064829
   -0.228766     1.210077     9.818093
  La  Ga   H
   2   1  12
Direct
    0.443703     0.108269     0.218554 
    0.746595     0.035057     0.788536 
    0.075619     0.593373     0.002844 
    0.961181     0.986010     0.502604 
    0.008599     0.433865     0.356138 
    0.441888     0.431661     0.441177 
    0.970286     0.056680     0.403000 
    0.784417     0.690982     0.346763 
    0.407977     0.743881     0.470352 
    0.126440     0.115837     0.584152 
    0.685997     0.319465     0.501064 
    0.453486     0.632126     0.619420 
    0.216164     0.864563     0.640173 
    0.022814     0.562529     0.511772 
    0.710577     0.518599     0.627566 
EA225   4.990  3.722  3.756 89.59 111.01 88.12 Sym.group:    1
1.0
    3.458702     0.076603    -3.596323
    0.099926     3.720275     0.006354
    1.593675    -0.021444     3.400857
  La  Ga   H
   2   1  12
Direct
    0.539455     0.781791     0.104621 
    0.975099     0.091013     0.838503 
    0.139193     0.543281     0.412350 
    0.599436     0.279532     0.882192 
    0.380925     0.294824     0.186518 
    0.521853     0.039206     0.592938 
    0.302599     0.039808     0.502476 
    0.963497     0.941296     0.338691 
    0.870338     0.586917     0.955737 
    0.137739     0.585834     0.862366 
    0.389535     0.287702     0.877413 
    0.607617     0.275319     0.394471 
    0.741811     0.595351     0.675438 
    0.484319     0.579830     0.575586 
    0.801308     0.288530     0.266137 
EA226   3.154  3.229  6.719 87.79 87.91 74.92 Sym.group:    1
1.0
    3.123639     0.434777     0.030590
    0.401715     3.203625     0.047467
    0.162031     0.140955     6.715575
  La  Ga   H
   2   1  12
Direct
    0.427284     0.371193     0.285996 
    0.684863     0.623923     0.739159 
    0.047639     0.993754     0.004824 
    0.273346     0.273671     0.593114 
    0.679171     0.782306     0.445132 
    0.632637     0.149358     0.561882 
    0.899363     0.841695     0.237178 
    0.050660     0.963326     0.406163 
    0.102776     0.042749     0.704753 
    0.185802     0.714804     0.539412 
    0.926303     0.278309     0.481782 
    0.243894     0.479354     0.938750 
    0.519299     0.175382     0.921698 
    0.550175     0.793344     0.077891 
    0.840291     0.485856     0.066084 
EA227   5.224  3.612  3.774 92.89 108.68 79.38 Sym.group:    1
1.0
    5.208589    -0.385463    -0.093270
    0.930925     3.472669     0.342515
   -1.165818    -0.238971     3.581970
  La  Ga   H
   2   1  12
Direct
    0.758169     0.397785     0.403376 
    0.159869     0.969371     0.080456 
    0.311691     0.460043     0.639521 
    0.289184     0.997250     0.637454 
    0.554519     0.949854     0.495565 
    0.492563     0.121453     0.988079 
    0.349602     0.415573     0.208858 
    0.916379     0.568761     0.010108 
    0.070928     0.481179     0.866455 
    0.829607     0.823988     0.158044 
    0.717091     0.949738     0.708449 
    0.592654     0.913483     0.100369 
    0.586158     0.624461     0.847154 
    0.982391     0.829781     0.517326 
    0.752428     0.178868     0.889114 
EA228   4.493  4.673  3.751 90.67 65.38 69.03 Sym.group:    1
1.0
    2.838216     0.005671     3.482984
    1.944734     4.211631     0.566254
   -1.649252     0.261169     3.359052
  La  Ga   H
   2   1  12
Direct
    0.097030     0.735039     0.706953 
    0.040279     0.281578     0.197242 
    0.519438     0.054111     0.437744 
    0.698780     0.598589     0.733693 
    0.365349     0.538981     0.089490 
    0.512768     0.395479     0.216158 
    0.519027     0.341462     0.733327 
    0.619510     0.674495     0.221427 
    0.305058     0.793787     0.113812 
    0.927550     0.862411     0.297684 
    0.577191     0.041995     0.956314 
    0.845787     0.415300     0.802470 
    0.469691     0.881137     0.842655 
    0.579476     0.558331     0.586990 
    0.839646     0.204496     0.785365 
EA229   4.102  4.138  4.113 75.92 77.76 77.07 Sym.group:    2
1.0
    4.077700     0.340557     0.289669
    0.563939     4.082149     0.375352
    0.543335     0.567940     4.037565
  La  Ga   H
   2   1  12
Direct
    0.170054     0.182463     0.174500 
    0.794468     0.781140     0.788351 
    0.481580     0.481610     0.482589 
    0.888010     0.278931     0.628205 
    0.619201     0.891087     0.274018 
    0.297142     0.624503     0.881639 
    0.626001     0.268924     0.891791 
    0.880915     0.626356     0.293857 
    0.287905     0.887993     0.619993 
    0.676543     0.075111     0.342921 
    0.340052     0.694230     0.073904 
    0.082215     0.336461     0.669533 
    0.345314     0.072445     0.689040 
    0.666385     0.340616     0.084157 
    0.074969     0.684826     0.334043 
EA230   5.089  5.154  2.813 90.27 89.61 119.52 Sym.group:    5
1.0
    5.089209    -0.025777     0.006669
   -2.516687     4.498146     0.011779
    0.015493    -0.013900     2.812830
  La  Ga   H
   2   1  12
Direct
    0.355106     0.706846     0.501975 
    0.650682     0.305756     0.502691 
    0.984613     0.966997     0.998999 
    0.737961     0.708608     0.497469 
    0.200326     0.017437     0.498257 
    0.817594     0.018985     0.501448 
    0.235339     0.283385     0.520905 
    0.043470     0.285528     0.478428 
    0.972418     0.704363     0.503304 
    0.342364     0.363541     0.997238 
    0.657268     0.007538     0.001362 
    0.988854     0.618211     0.001436 
    0.632214     0.620562     0.004717 
    0.351409     0.004394     0.003129 
    0.018938     0.367880     0.007388 
EA231   4.008  3.994  5.023 89.67 89.84 60.14 Sym.group:    1
1.0
    2.018117     3.462365    -0.016812
   -1.991223     3.462375    -0.021012
   -0.020238     0.052024     5.022435
  La  Ga   H
   2   1  12
Direct
    0.992332     0.005154     0.498823 
    0.682020     0.655601     0.000805 
    0.654507     0.674439     0.501640 
    0.699273     0.145728     0.103634 
    0.159902     0.701340     0.095822 
    0.169344     0.138806     0.096143 
    0.700619     0.146695     0.895369 
    0.161007     0.700849     0.903788 
    0.166722     0.138096     0.902344 
    0.092565     0.453489     0.683294 
    0.443603     0.097021     0.694214 
    0.445168     0.458044     0.695970 
    0.092079     0.456455     0.317155 
    0.446166     0.095440     0.301738 
    0.442554     0.460737     0.308550 
EA232   2.988  3.030  8.298 89.59 90.58 61.85 Sym.group:    1
1.0
    1.513883     2.576468     0.000872
   -1.579079     2.585640     0.016744
   -0.096369    -0.043440     8.297524
  La  Ga   H
   2   1  12
Direct
    0.802298     0.129055     0.651478 
    0.914751     0.076187     0.353595 
    0.026800     0.985196     0.024969 
    0.383360     0.305252     0.069342 
    0.301137     0.376502     0.969674 
    0.632654     0.067950     0.868564 
    0.776473     0.565343     0.163349 
    0.785195     0.492799     0.862706 
    0.664971     0.666525     0.995895 
    0.079676     0.514830     0.204262 
    0.436241     0.050377     0.189128 
    0.419140     0.591520     0.203507 
    0.348865     0.662227     0.813436 
    0.057951     0.509690     0.798943 
    0.360964     0.017037     0.820359 
EA233   3.804  3.731  5.010 105.81 104.66 88.62 Sym.group:    1
1.0
    3.771149    -0.022603    -0.499749
    0.041663     3.692165    -0.536323
   -0.630353    -0.656562     4.926404
  La  Ga   H
   2   1  12
Direct
    0.910527     0.991067     0.488194 
    0.576524     0.529257     0.943525 
    0.134198     0.072203     0.056952 
    0.430957     0.676299     0.407718 
    0.397907     0.261560     0.501228 
    0.199855     0.497808     0.557274 
    0.612299     0.475907     0.417533 
    0.386765     0.947960     0.405452 
    0.587726     0.109532     0.133629 
    0.015196     0.424475     0.302145 
    0.116581     0.669707     0.126550 
    0.699025     0.965027     0.816611 
    0.396369     0.953251     0.760262 
    0.999393     0.601026     0.726274 
    0.049202     0.378975     0.866158 
EA234   4.110  4.118  4.128 76.43 77.09 77.32 Sym.group:    1
1.0
    4.096849     0.240884     0.219696
    0.653017     4.055758     0.282888
    0.673961     0.593457     4.029078
  La  Ga   H
   2   1  12
Direct
    0.626555     0.628933     0.628853 
    0.245465     0.240288     0.236048 
    0.933208     0.936846     0.932829 
    0.129143     0.796081     0.530582 
    0.533114     0.128574     0.789023 
    0.796335     0.532766     0.135740 
    0.126858     0.533209     0.792271 
    0.795113     0.138155     0.523979 
    0.526187     0.787590     0.131897 
    0.077505     0.731157     0.342422 
    0.339290     0.078591     0.734063 
    0.743071     0.340893     0.075560 
    0.742341     0.073627     0.334920 
    0.332320     0.742848     0.072269 
    0.077840     0.341504     0.728927 
EA235   3.774  5.204  3.743 71.45 89.88 110.12 Sym.group:    1
1.0
    3.774009     0.035015     0.011339
   -1.830451     3.172224     3.697279
    0.015088    -1.837725     3.260309
  La  Ga   H
   2   1  12
Direct
    0.379562     0.726011     0.686812 
    0.616118     0.295583     0.270752 
    0.970605     0.928540     0.091161 
    0.002869     0.952465     0.541165 
    0.046849     0.171155     0.531897 
    0.707832     0.141996     0.830137 
    0.412669     0.936736     0.091439 
    0.868946     0.355094     0.742687 
    0.135883     0.599833     0.245629 
    0.523457     0.660090     0.222956 
    0.397453     0.310789     0.761571 
    0.825375     0.587304     0.567867 
    0.111867     0.301931     0.051818 
    0.138777     0.356401     0.491083 
    0.866217     0.681443     0.864017 
EA236   3.992  4.153  4.679 115.32 74.68 88.05 Sym.group:    1
1.0
    3.975545     0.059982    -0.359101
    0.078867     4.151923    -0.008193
    1.623580    -2.025025     3.893497
  La  Ga   H
   2   1  12
Direct
    0.469391     0.609202     0.250549 
    0.701526     0.268456     0.591856 
    0.076393     0.967652     0.814035 
    0.154493     0.224365     0.227204 
    0.681203     0.936189     0.086712 
    0.989574     0.649064     0.203321 
    0.836685     0.268772     0.152604 
    0.409331     0.124451     0.296017 
    0.161436     0.962100     0.183224 
    0.888384     0.810124     0.109154 
    0.988391     0.523865     0.362299 
    0.168851     0.449215     0.918717 
    0.168968     0.499636     0.658433 
    0.539942     0.823061     0.772724 
    0.487527     0.115190     0.944122 
EA237   3.635  6.270  3.165 77.61 67.63 86.86 Sym.group:    1
1.0
    3.630226     0.173458     0.078516
    0.046248     6.269699    -0.072206
    1.110268     0.704187     2.879457
  La  Ga   H
   2   1  12
Direct
    0.966845     0.647153     0.673020 
    0.049389     0.278393     0.354407 
    0.607476     0.969882     0.146673 
    0.368777     0.798370     0.950168 
    0.495703     0.139244     0.547221 
    0.663493     0.321881     0.019773 
    0.156148     0.963733     0.511040 
    0.801033     0.967681     0.571521 
    0.582941     0.532220     0.340590 
    0.469722     0.438637     0.681134 
    0.375180     0.564858     0.007732 
    0.515106     0.737435     0.523033 
    0.076198     0.835668     0.038163 
    0.451273     0.250525     0.706201 
    0.091255     0.078133     0.941633 
EA238   3.738  4.833  3.800 85.44 88.96 106.55 Sym.group:    1
1.0
    3.737198     0.085017    -0.045028
   -1.480870     4.599849     0.050471
    0.107616     0.310171     3.785906
  La  Ga   H
   2   1  12
Direct
    0.186701     0.876335     0.373789 
    0.951792     0.300901     0.738968 
    0.614045     0.697311     0.913772 
    0.176690     0.693631     0.906505 
    0.047703     0.928465     0.884652 
    0.761903     0.083786     0.218065 
    0.936242     0.465891     0.209576 
    0.619149     0.688643     0.326506 
    0.445377     0.314484     0.014728 
    0.461748     0.295323     0.488135 
    0.532723     0.496699     0.540089 
    0.689734     0.922924     0.547721 
    0.202792     0.351713     0.226424 
    0.684399     0.285991     0.236409 
    0.388415     0.067773     0.861188 
EA239   2.883  3.893  5.866 88.93 90.01 89.98 Sym.group:    6
1.0
    2.882683     0.011155     0.031309
   -0.015197     3.891236     0.117956
   -0.064190    -0.068230     5.865654
  La  Ga   H
   2   1  12
Direct
    0.427104     0.652713     0.975903 
    0.427493     0.104357     0.363702 
    0.927635     0.602306     0.572802 
    0.428145     0.603757     0.338629 
    0.927303     0.903202     0.153053 
    0.927423     0.345196     0.138510 
    0.426118     0.114606     0.734031 
    0.426406     0.151496     0.011820 
    0.927095     0.371922     0.833936 
    0.925918     0.119263     0.910686 
    0.927433     0.516858     0.249288 
    0.926727     0.936446     0.819556 
    0.427564     0.875246     0.667519 
    0.927546     0.133220     0.599000 
    0.427983     0.349941     0.683101 
EA240   3.663  3.755  4.832 91.10 87.25 90.63 Sym.group:    1
1.0
    3.662770     0.040950     0.003443
   -0.083494     3.749491     0.176655
    0.230846    -0.314394     4.815896
  La  Ga   H
   2   1  12
Direct
    0.667170     0.086077     0.884988 
    0.010056     0.071626     0.377968 
    0.195892     0.577124     0.738767 
    0.505891     0.297220     0.260880 
    0.481166     0.852933     0.534820 
    0.730927     0.526030     0.239764 
    0.206495     0.568099     0.355153 
    0.167692     0.301237     0.013440 
    0.926389     0.572924     0.154308 
    0.509825     0.862085     0.248090 
    0.362486     0.656897     0.206246 
    0.151934     0.866817     0.999332 
    0.572190     0.585771     0.925514 
    0.785091     0.569464     0.596013 
    0.487327     0.305192     0.535282 
EA241   5.088  5.312  2.862 74.60 90.06 61.41 Sym.group:   71
1.0
    5.087637     0.030458     0.023670
    2.511607     4.641175     0.605000
   -0.019167     0.512883     2.815303
  La  Ga   H
   2   1  12
Direct
    0.017932     0.963239     0.250382 
    0.316050     0.366600     0.548017 
    0.666915     0.665124     0.893177 
    0.019590     0.665085     0.898858 
    0.309879     0.986898     0.737515 
    0.763274     0.294020     0.587014 
    0.632031     0.343162     0.062722 
    0.849403     0.665512     0.394372 
    0.392940     0.035298     0.211356 
    0.023526     0.343261     0.060994 
    0.570970     0.035285     0.211819 
    0.484212     0.665009     0.394904 
    0.314460     0.664636     0.899404 
    0.941360     0.294036     0.586533 
    0.702186     0.987197     0.737057 
EA242   5.259  3.785  3.597 89.87 109.87 100.93 Sym.group:    1
1.0
    4.107060    -0.082978    -3.283256
   -0.823881     3.694528     0.025996
    1.155649     0.242012     3.397204
  La  Ga   H
   2   1  12
Direct
    0.515347     0.994687     0.856963 
    0.076734     0.413538     0.134566 
    0.877929     0.846894     0.536497 
    0.706450     0.542330     0.771391 
    0.152781     0.171886     0.673704 
    0.472267     0.263457     0.334542 
    0.459155     0.471178     0.570708 
    0.359202     0.451877     0.777782 
    0.249316     0.960432     0.224557 
    0.928257     0.882470     0.063326 
    0.140146     0.644727     0.665506 
    0.704609     0.542589     0.123322 
    0.492927     0.745301     0.347383 
    0.469384     0.463510     0.111098 
    0.763134     0.250021     0.479533 
EA243   3.724  3.725  5.324 69.86 110.06 89.48 Sym.group:    1
1.0
    3.724433     0.013178    -0.007695
    0.020395     3.725136     0.014625
   -1.823021     1.824617     4.657588
  La  Ga   H
   2   1  12
Direct
    0.815232     0.188770     0.625485 
    0.183109     0.819193     0.368643 
    0.490280     0.501786     0.997089 
    0.289412     0.371764     0.259682 
    0.702793     0.634221     0.737597 
    0.029856     0.630725     0.739601 
    0.958859     0.378300     0.251502 
    0.372496     0.968256     0.739806 
    0.628288     0.709378     0.257176 
    0.624333     0.038099     0.254141 
    0.368747     0.296709     0.737153 
    0.985871     0.249474     0.997231 
    0.988076     0.758465     0.996938 
    0.753886     0.998708     0.997104 
    0.245576     0.999301     0.997034 
EA244   4.820  4.836  2.850 90.02 89.95 90.11 Sym.group:    1
1.0
    4.819971     0.066388    -0.017118
   -0.075766     4.835834    -0.016925
    0.012344     0.009373     2.849556
  La  Ga   H
   2   1  12
Direct
    0.999219     0.499893     0.219127 
    0.499862     0.000275     0.783515 
    0.498750     0.500066     0.503535 
    0.001046     0.845863     0.733623 
    0.840939     0.999727     0.271701 
    0.159040     0.995089     0.271180 
    0.000361     0.153499     0.733309 
    0.281401     0.800189     0.261676 
    0.795484     0.287037     0.741993 
    0.201063     0.715664     0.741573 
    0.716906     0.200289     0.261688 
    0.722835     0.805460     0.262437 
    0.799217     0.717190     0.741165 
    0.195855     0.278940     0.740264 
    0.276492     0.194999     0.262457 
EA245   2.898  3.103  8.165 89.90 89.98 62.85 Sym.group:    1
1.0
    1.417730    -2.526942     0.030095
    3.100834     0.116116     0.011618
   -0.019548     0.083506     8.164331
  La  Ga   H
   2   1  12
Direct
    0.000703     0.005927     0.833849 
    0.002972     0.001008     0.160098 
    0.999292     0.002835     0.494874 
    0.991290     0.505479     0.545384 
    0.495996     0.005171     0.623476 
    0.498816     0.505137     0.656731 
    0.491561     0.497061     0.470082 
    0.001512     0.497923     0.338073 
    0.499446     0.998772     0.366498 
    0.674666     0.654935     0.997221 
    0.328964     0.351742     0.997671 
    0.654815     0.596875     0.299141 
    0.261399     0.402642     0.698456 
    0.726188     0.619996     0.704298 
    0.349792     0.398373     0.294692 
EA246   5.550  5.414  4.795 94.89 74.61 108.87 Sym.group:    1
1.0
    5.524719    -0.052175     0.524196
   -1.679406     5.136203    -0.324818
    0.831585     0.139362     4.720300
  La  Ga   H
   4   2  24
Direct
    0.077950     0.088250     0.404465 
    0.190220     0.558370     0.019283 
    0.601384     0.844135     0.273215 
    0.862278     0.647165     0.720427 
    0.639959     0.356779     0.233770 
    0.617431     0.109411     0.780872 
    0.335301     0.235776     0.019379 
    0.246993     0.569468     0.542549 
    0.975294     0.123066     0.977554 
    0.196312     0.778471     0.385778 
    0.360271     0.318744     0.661476 
    0.200432     0.166683     0.966252 
    0.051404     0.445924     0.436045 
    0.275949     0.948612     0.667600 
    0.539652     0.523449     0.022435 
    0.891904     0.688388     0.294133 
    0.339078     0.450413     0.330535 
    0.022573     0.861894     0.051974 
    0.887010     0.209278     0.129611 
    0.438599     0.127009     0.466256 
    0.176037     0.932815     0.842521 
    0.960882     0.322997     0.751527 
    0.562360     0.539400     0.531790 
    0.849709     0.004181     0.849446 
    0.200161     0.285849     0.714211 
    0.336471     0.699837     0.627685 
    0.516953     0.367302     0.781817 
    0.550261     0.776944     0.751155 
    0.865012     0.347894     0.430190 
    0.357013     0.959714     0.077134 
EA247   5.287  4.764  5.666 81.08 107.04 105.81 Sym.group:    1
1.0
    5.275023    -0.081013     0.340524
   -1.223947     4.602937    -0.090485
   -1.997119     0.481946     5.280061
  La  Ga   H
   4   2  24
Direct
    0.295629     0.089070     0.522514 
    0.010080     0.504437     0.593431 
    0.546975     0.827881     0.231381 
    0.020044     0.478084     0.077726 
    0.439559     0.332693     0.955778 
    0.776312     0.915807     0.786894 
    0.723163     0.279454     0.776008 
    0.497747     0.966232     0.867833 
    0.171503     0.760411     0.327290 
    0.179934     0.947155     0.020975 
    0.681502     0.172037     0.483289 
    0.652764     0.458156     0.687228 
    0.302120     0.509490     0.414431 
    0.139811     0.860334     0.855190 
    0.096160     0.209364     0.877635 
    0.394109     0.364559     0.227261 
    0.704235     0.184878     0.059863 
    0.681034     0.638736     0.989310 
    0.179216     0.045053     0.142843 
    0.893054     0.880599     0.483505 
    0.402273     0.490098     0.671195 
    0.488605     0.746421     0.598618 
    0.703118     0.307453     0.307586 
    0.908086     0.990474     0.120012 
    0.990887     0.098129     0.625276 
    0.946175     0.812552     0.268075 
    0.748484     0.509449     0.253612 
    0.601309     0.483087     0.498051 
    0.327504     0.669142     0.885332 
    0.907177     0.167016     0.341767 
EA248   5.116  4.971  5.842 71.74 82.07 68.29 Sym.group:    1
1.0
    5.112023     0.114360     0.176306
    1.727178     4.653501     0.263829
    0.580218     1.420231     5.637250
  La  Ga   H
   4   2  24
Direct
    0.606361     0.712243     0.214515 
    0.900234     0.127551     0.152323 
    0.452340     0.282251     0.872617 
    0.114385     0.364484     0.464627 
    0.973552     0.787718     0.837235 
    0.560528     0.799082     0.646645 
    0.860260     0.793266     0.453789 
    0.287470     0.113465     0.205031 
    0.336673     0.531542     0.121849 
    0.011563     0.712482     0.156284 
    0.273101     0.932200     0.003952 
    0.083035     0.447249     0.088589 
    0.449584     0.343805     0.219399 
    0.266044     0.932859     0.413447 
    0.132105     0.150129     0.835259 
    0.868418     0.199818     0.763935 
    0.503310     0.377650     0.483366 
    0.319707     0.702283     0.940055 
    0.373147     0.573767     0.526215 
    0.717250     0.457858     0.611072 
    0.101302     0.940227     0.520718 
    0.190212     0.642089     0.632682 
    0.889196     0.079312     0.514523 
    0.682150     0.037250     0.664718 
    0.261539     0.007363     0.739204 
    0.524842     0.090589     0.362920 
    0.683648     0.544799     0.916070 
    0.209203     0.739365     0.288170 
    0.021154     0.389153     0.820859 
    0.741649     0.263692     0.461424 
EA249   5.133  4.476  5.710 93.88 90.43 91.36 Sym.group:    1
1.0
    5.132557    -0.074439     0.008236
   -0.041225     4.475244     0.036325
   -0.058637    -0.432771     5.693008
  La  Ga   H
   4   2  24
Direct
    0.227371     0.081742     0.184540 
    0.704033     0.594166     0.500528 
    0.952505     0.573371     0.092640 
    0.415227     0.572167     0.919642 
    0.729388     0.063129     0.973722 
    0.072805     0.153066     0.698583 
    0.625794     0.102373     0.365748 
    0.346153     0.496975     0.314836 
    0.521365     0.021087     0.446306 
    0.612423     0.830499     0.183201 
    0.062415     0.804177     0.441023 
    0.050298     0.348925     0.441256 
    0.854619     0.200325     0.285516 
    0.796269     0.036756     0.603153 
    0.377821     0.708740     0.289760 
    0.361451     0.356968     0.436774 
    0.879349     0.946888     0.325857 
    0.289451     0.997006     0.520939 
    0.097813     0.615867     0.454352 
    0.591598     0.345062     0.178706 
    0.748503     0.372128     0.817044 
    0.348094     0.778382     0.607334 
    0.529571     0.908058     0.701311 
    0.028612     0.545570     0.744156 
    0.283191     0.598224     0.589132 
    0.394120     0.101842     0.870406 
    0.775170     0.732718     0.828735 
    0.563482     0.228493     0.685995 
    0.423602     0.268935     0.617891 
    0.113080     0.843326     0.850397 
EA250   5.093  5.211  5.944 70.42 98.93 117.71 Sym.group:    1
1.0
    5.078822     0.236109    -0.296083
   -2.640707     4.492678    -0.026460
   -0.690324     1.938153     5.576488
  La  Ga   H
   4   2  24
Direct
    0.285817     0.990447     0.199355 
    0.728650     0.468515     0.570702 
    0.032325     0.967757     0.710194 
    0.922254     0.309144     0.065171 
    0.586493     0.630692     0.113830 
    0.428923     0.741121     0.708185 
    0.967268     0.695220     0.054784 
    0.564170     0.942422     0.051998 
    0.110830     0.181186     0.367804 
    0.594560     0.828163     0.426677 
    0.661629     0.349713     0.272015 
    0.880123     0.890458     0.327152 
    0.242131     0.587285     0.216936 
    0.899891     0.957377     0.007064 
    0.415495     0.088427     0.530138 
    0.043610     0.348438     0.737221 
    0.422431     0.260257     0.853217 
    0.314261     0.416834     0.566747 
    0.030223     0.532987     0.330670 
    0.262187     0.737335     0.929219 
    0.152620     0.743157     0.528862 
    0.269102     0.336950     0.897098 
    0.713898     0.100612     0.440023 
    0.673689     0.553913     0.875175 
    0.704667     0.055205     0.781437 
    0.464874     0.668607     0.366366 
    0.899856     0.246086     0.443659 
    0.133590     0.428292     0.550765 
    0.497093     0.112682     0.873911 
    0.289017     0.313234     0.366795 
EA251   4.866  4.934  5.565 86.56 92.67 88.73 Sym.group:    1
1.0
    4.865462     0.023073    -0.086816
    0.088597     4.929858     0.169915
   -0.160454     0.145197     5.560879
  La  Ga   H
   4   2  24
Direct
    0.481843     0.017929     0.865522 
    0.023238     0.484894     0.139046 
    0.525771     0.985946     0.373880 
    0.976253     0.516225     0.629736 
    0.516723     0.509513     0.005958 
    0.988719     0.996099     0.993897 
    0.056350     0.865344     0.388492 
    0.936393     0.148746     0.396296 
    0.581968     0.580209     0.488856 
    0.314087     0.372477     0.428866 
    0.445589     0.638016     0.618306 
    0.563872     0.351246     0.606587 
    0.919844     0.922421     0.514796 
    0.191632     0.133983     0.572506 
    0.183771     0.738056     0.865503 
    0.776478     0.304862     0.873632 
    0.766408     0.710248     0.866687 
    0.321020     0.387952     0.786020 
    0.320325     0.764409     0.138300 
    0.725072     0.200312     0.130217 
    0.751108     0.799139     0.146349 
    0.177318     0.110948     0.220771 
    0.822514     0.916507     0.671838 
    0.087950     0.102801     0.697876 
    0.701075     0.222772     0.625305 
    0.302628     0.767110     0.638041 
    0.671640     0.574632     0.331216 
    0.414765     0.395780     0.299526 
    0.802833     0.279496     0.377485 
    0.199877     0.736796     0.365176 
EA252   5.136  4.987  5.178 90.06 89.99 90.02 Sym.group:   27
1.0
    5.135907    -0.017894    -0.038734
    0.015531     4.986425    -0.033459
    0.040368     0.028865     5.177544
  La  Ga   H
   4   2  24
Direct
    0.694904     0.694647     0.249706 
    0.300981     0.309442     0.252219 
    0.301447     0.695221     0.750140 
    0.694395     0.309031     0.751832 
    0.999048     0.001852     0.001319 
    0.997941     0.002393     0.501574 
    0.330964     0.904943     0.117286 
    0.669164     0.098649     0.117403 
    0.099961     0.669146     0.373765 
    0.895882     0.333850     0.371569 
    0.669939     0.904591     0.615866 
    0.329870     0.099328     0.619824 
    0.896463     0.669322     0.870504 
    0.100051     0.336143     0.875981 
    0.384574     0.077987     0.902944 
    0.610872     0.925098     0.902267 
    0.920366     0.622217     0.605284 
    0.076606     0.377051     0.609689 
    0.608494     0.077350     0.404194 
    0.384694     0.925607     0.400970 
    0.077224     0.626163     0.106757 
    0.920553     0.378915     0.108968 
    0.298203     0.293312     0.870247 
    0.698984     0.715146     0.866935 
    0.691191     0.708367     0.631466 
    0.303902     0.294322     0.634839 
    0.696464     0.290320     0.369682 
    0.297654     0.714292     0.367703 
    0.305236     0.709208     0.132184 
    0.690439     0.292372     0.134303 
EA253   5.026  5.261  5.256 90.38 77.67 90.29 Sym.group:    1
1.0
    4.997374    -0.012028     0.530981
   -0.010304     5.260449    -0.034863
    0.573869     0.001221     5.224437
  La  Ga   H
   4   2  24
Direct
    0.675655     0.844753     0.729545 
    0.803890     0.231657     0.208204 
    0.274584     0.777726     0.288577 
    0.153883     0.218886     0.770369 
    0.507877     0.484293     0.528992 
    0.060269     0.727310     0.914388 
    0.197465     0.492460     0.035015 
    0.192243     0.402573     0.239586 
    0.827863     0.625356     0.232421 
    0.837163     0.490903     0.804944 
    0.637253     0.919187     0.113392 
    0.638706     0.195811     0.866974 
    0.312817     0.953699     0.954000 
    0.375420     0.140771     0.082527 
    0.873981     0.156867     0.557828 
    0.875946     0.890649     0.329556 
    0.154162     0.137031     0.387514 
    0.066872     0.898913     0.620822 
    0.341062     0.907509     0.618713 
    0.339454     0.165839     0.393853 
    0.678795     0.868907     0.322021 
    0.561338     0.155522     0.565100 
    0.898825     0.589873     0.365399 
    0.842129     0.422957     0.586959 
    0.148378     0.579858     0.620096 
    0.106101     0.410675     0.405405 
    0.653636     0.352682     0.861208 
    0.637792     0.584882     0.100936 
    0.398643     0.301684     0.124822 
    0.445464     0.518291     0.866838 
EA254   4.801  4.802  6.463 89.94 89.98 60.07 Sym.group:    1
1.0
   -2.447432    -4.130615    -0.023897
    2.359281    -4.182287    -0.022875
    0.002720    -0.041255     6.463223
  La  Ga   H
   4   2  24
Direct
    0.336164     0.331166     0.044070 
    0.668041     0.662184     0.544491 
    0.001474     0.000898     0.957732 
    0.002732     0.996304     0.457769 
    0.334344     0.328534     0.648714 
    0.670253     0.662740     0.149324 
    0.224482     0.230702     0.420761 
    0.777135     0.456173     0.920406 
    0.548588     0.229191     0.425827 
    0.772132     0.776812     0.926971 
    0.225883     0.542768     0.421380 
    0.456248     0.777353     0.923142 
    0.540811     0.540784     0.835270 
    0.454345     0.080830     0.334590 
    0.919135     0.543366     0.832546 
    0.450585     0.463909     0.334357 
    0.538850     0.917083     0.833139 
    0.078378     0.459167     0.331780 
    0.017726     0.275299     0.213055 
    0.719776     0.291655     0.715532 
    0.703775     0.011022     0.218521 
    0.986483     0.716425     0.716961 
    0.281217     0.705481     0.212905 
    0.293863     0.981489     0.711593 
    0.014600     0.703078     0.213552 
    0.298996     0.709481     0.718076 
    0.287386     0.009328     0.216425 
    0.989923     0.293087     0.714460 
    0.704142     0.285391     0.217717 
    0.715441     0.985901     0.716648 
EA255   4.794  5.401  5.515 91.19 86.01 66.55 Sym.group:    1
1.0
    4.789598    -0.096756     0.169181
    2.251517     4.908550    -0.051113
    0.186425    -0.154636     5.509578
  La  Ga   H
   4   2  24
Direct
    0.899655     0.717715     0.367561 
    0.365696     0.734124     0.626386 
    0.114180     0.269930     0.642217 
    0.647931     0.257241     0.380842 
    0.732163     0.007818     0.790959 
    0.280928     0.987742     0.219981 
    0.565318     0.642499     0.243602 
    0.769041     0.624130     0.765860 
    0.687105     0.356273     0.745218 
    0.908378     0.368431     0.145687 
    0.407079     0.379196     0.795654 
    0.207712     0.340224     0.270635 
    0.329151     0.575722     0.225604 
    0.002083     0.667929     0.733781 
    0.198019     0.188068     0.976074 
    0.613294     0.241415     0.030680 
    0.803716     0.816610     0.039796 
    0.305521     0.757001     0.986579 
    0.451374     0.908598     0.906066 
    0.702372     0.716423     0.052160 
    0.849774     0.261642     0.040117 
    0.061052     0.018634     0.874577 
    0.546048     0.088388     0.109572 
    0.301335     0.278416     0.958207 
    0.133704     0.742397     0.974641 
    0.938315     0.993344     0.136604 
    0.955667     0.507685     0.993058 
    0.600851     0.546519     0.938028 
    0.118372     0.530370     0.980013 
    0.487654     0.487482     0.032026 
EA256   5.167  7.083  3.655 83.20 88.91 86.40 Sym.group:    1
1.0
    5.163750     0.193022     0.025514
    0.178673     7.067107     0.439166
    0.043960     0.205653     3.648570
  La  Ga   H
   4   2  24
Direct
    0.706147     0.172003     0.143618 
    0.726384     0.800643     0.863849 
    0.240871     0.829557     0.204445 
    0.219482     0.180470     0.783191 
    0.169602     0.545599     0.738812 
    0.971858     0.473134     0.265020 
    0.871584     0.900119     0.349058 
    0.865061     0.074436     0.653253 
    0.066092     0.080407     0.317717 
    0.055655     0.937977     0.707936 
    0.590638     0.075345     0.655823 
    0.591349     0.910523     0.352826 
    0.372913     0.917406     0.674229 
    0.360126     0.089502     0.318759 
    0.347497     0.335257     0.276603 
    0.386958     0.709104     0.713592 
    0.653849     0.694449     0.396408 
    0.623877     0.290773     0.617735 
    0.769310     0.508314     0.723293 
    0.671745     0.461456     0.242738 
    0.441787     0.406900     0.876323 
    0.358595     0.552705     0.131085 
    0.496002     0.570292     0.222069 
    0.620521     0.487713     0.778664 
    0.451463     0.369089     0.429604 
    0.515990     0.642633     0.525918 
    0.086665     0.781403     0.702149 
    0.071413     0.250384     0.281738 
    0.822321     0.274405     0.612884 
    0.873642     0.697111     0.394319 
EA257   5.792  5.766  4.556 88.90 89.48 60.17 Sym.group:    1
1.0
    2.886048    -5.021129     0.025141
    5.766043     0.006406     0.069852
    0.032473    -0.006480     4.555471
  La  Ga   H
   4   2  24
Direct
    0.579419     0.993632     0.084700 
    0.423668     0.571139     0.085725 
    0.000257     0.404612     0.075019 
    0.001355     0.021132     0.690094 
    0.670922     0.676276     0.583056 
    0.324717     0.348370     0.584959 
    0.998303     0.898493     0.193304 
    0.171047     0.771689     0.381327 
    0.001491     0.113708     0.285601 
    0.221049     0.013887     0.296472 
    0.758116     0.241126     0.304050 
    0.879065     0.717033     0.355672 
    0.598701     0.239176     0.378053 
    0.121233     0.598453     0.355302 
    0.269795     0.151777     0.368755 
    0.735580     0.417664     0.372117 
    0.834281     0.942545     0.377462 
    0.395803     0.843686     0.377569 
    0.599471     0.004849     0.570954 
    0.401641     0.601740     0.571629 
    0.999628     0.388970     0.565133 
    0.414784     0.851678     0.796017 
    0.719425     0.417719     0.787249 
    0.869666     0.728984     0.793421 
    0.283000     0.135214     0.788409 
    0.585627     0.266388     0.793484 
    0.130974     0.600129     0.795612 
    0.235355     0.980497     0.035447 
    0.769788     0.213097     0.036994 
    0.002113     0.786980     0.047250 
EA258   5.348  5.204  5.558 89.89 73.84 61.39 Sym.group:    2
1.0
   -2.613999     4.638087    -0.509776
   -5.203288    -0.056182     0.025579
   -0.010976     2.332574     5.045024
  La  Ga   H
   4   2  24
Direct
    0.947146     0.027650     0.018254 
    0.946822     0.528421     0.518003 
    0.372541     0.312123     0.999292 
    0.371837     0.813152     0.499595 
    0.663085     0.667255     0.009347 
    0.662037     0.170464     0.509078 
    0.376116     0.943948     0.863618 
    0.767813     0.355846     0.815479 
    0.074101     0.608468     0.835663 
    0.764901     0.377644     0.318221 
    0.371961     0.180637     0.367493 
    0.063081     0.830168     0.340227 
    0.949303     0.159673     0.647139 
    0.248718     0.520552     0.684107 
    0.552987     0.963125     0.700973 
    0.237743     0.729239     0.188877 
    0.947011     0.393531     0.151180 
    0.550565     0.986422     0.204137 
    0.250912     0.232280     0.676886 
    0.944164     0.895267     0.653911 
    0.551085     0.485688     0.703160 
    0.948819     0.659988     0.149079 
    0.259615     0.006840     0.174558 
    0.553246     0.463433     0.200182 
    0.371160     0.681798     0.871326 
    0.075832     0.315075     0.829422 
    0.765478     0.876820     0.818109 
    0.084575     0.111028     0.326525 
    0.374205     0.444581     0.366364 
    0.767107     0.855635     0.314913 
EA259   6.330  6.205  3.599 83.50 84.60 72.39 Sym.group:    1
1.0
    6.286929    -0.676789     0.287523
    2.485370     5.675532     0.334763
    0.192940     0.149054     3.590353
  La  Ga   H
   4   2  24
Direct
    0.675850     0.268149     0.903483 
    0.133303     0.592887     0.937357 
    0.343940     0.062001     0.274519 
    0.677642     0.685887     0.810598 
    0.897912     0.947064     0.364030 
    0.076904     0.017730     0.814706 
    0.785142     0.947127     0.808530 
    0.374351     0.728791     0.571903 
    0.921133     0.390164     0.672513 
    0.928664     0.238133     0.315357 
    0.668927     0.888317     0.260781 
    0.227314     0.761046     0.355727 
    0.510297     0.725978     0.332651 
    0.623826     0.484753     0.368008 
    0.838770     0.600872     0.283894 
    0.984232     0.676392     0.461223 
    0.357086     0.899108     0.806989 
    0.864037     0.454357     0.454654 
    0.403934     0.426923     0.236829 
    0.130748     0.256941     0.852035 
    0.358312     0.312861     0.788874 
    0.165885     0.335861     0.583804 
    0.447920     0.188324     0.681985 
    0.436168     0.555172     0.694494 
    0.333736     0.496884     0.422349 
    0.112987     0.396113     0.391187 
    0.588315     0.197301     0.432322 
    0.933040     0.351153     0.121555 
    0.540933     0.019184     0.775913 
    0.362253     0.729171     0.118492 
EA260   4.837  5.433  5.023 88.20 89.33 89.85 Sym.group:    1
1.0
    4.836925     0.009241     0.014011
    0.003354     5.433058     0.054825
    0.043626     0.106695     5.021781
  La  Ga   H
   4   2  24
Direct
    0.422512     0.319138     0.831384 
    0.566338     0.819159     0.825490 
    0.034143     0.940779     0.566462 
    0.958074     0.440607     0.577437 
    0.911887     0.188931     0.061468 
    0.080930     0.682155     0.054063 
    0.677537     0.153740     0.568675 
    0.322871     0.647826     0.551298 
    0.529415     0.695762     0.210843 
    0.470260     0.357127     0.206777 
    0.547750     0.855031     0.205662 
    0.492382     0.200877     0.213244 
    0.811883     0.654171     0.287504 
    0.148208     0.398086     0.183927 
    0.847416     0.900055     0.167305 
    0.219728     0.103111     0.253103 
    0.261338     0.922146     0.237068 
    0.773042     0.181246     0.362080 
    0.240235     0.683439     0.363531 
    0.736819     0.462987     0.261144 
    0.533052     0.048162     0.116740 
    0.201198     0.003166     0.933666 
    0.781132     0.503380     0.954050 
    0.450743     0.555266     0.121214 
    0.572423     0.468693     0.443346 
    0.389944     0.399871     0.439304 
    0.592919     0.918907     0.431530 
    0.432172     0.985850     0.458339 
    0.289940     0.233987     0.444255 
    0.705761     0.731850     0.451428 
EA261   7.300  3.801  4.747 89.23 90.24 89.47 Sym.group:    1
1.0
    7.299687     0.008954    -0.036667
    0.030663     3.801071     0.018647
    0.004233     0.040611     4.746335
  La  Ga   H
   4   2  24
Direct
    0.191294     0.099425     0.358464 
    0.807819     0.848238     0.373121 
    0.292461     0.633502     0.851192 
    0.677579     0.404222     0.859360 
    0.980443     0.005134     0.895801 
    0.485957     0.507132     0.380060 
    0.711957     0.354602     0.316831 
    0.267439     0.601133     0.298918 
    0.766098     0.900179     0.818015 
    0.207868     0.136015     0.841183 
    0.902751     0.335975     0.170506 
    0.078532     0.627434     0.181864 
    0.582152     0.896028     0.692591 
    0.411848     0.165409     0.665629 
    0.409521     0.207072     0.083260 
    0.513387     0.734936     0.096361 
    0.037989     0.787084     0.621239 
    0.889369     0.296888     0.580145 
    0.093670     0.406772     0.061143 
    0.900861     0.595244     0.019124 
    0.414751     0.893701     0.518740 
    0.601402     0.094693     0.549722 
    0.597934     0.077140     0.168703 
    0.533026     0.021946     0.332789 
    0.017133     0.481912     0.831987 
    0.077133     0.400021     0.675412 
    0.097841     0.588425     0.475745 
    0.937711     0.352234     0.377003 
    0.424077     0.127572     0.885243 
    0.593244     0.911869     0.968545 
EA262   6.377  3.899  5.636 95.54 68.97 93.76 Sym.group:    2
1.0
    6.371320     0.083252     0.255915
   -0.313037     3.883066     0.151898
    1.819130    -0.606541     5.300117
  La  Ga   H
   4   2  24
Direct
    0.942184     0.264411     0.673785 
    0.314475     0.244876     0.942834 
    0.057849     0.733015     0.324445 
    0.685022     0.751431     0.055023 
    0.651188     0.309862     0.420317 
    0.349058     0.685651     0.577237 
    0.770134     0.940431     0.377514 
    0.979160     0.029898     0.083471 
    0.783559     0.264192     0.079693 
    0.511008     0.275288     0.179432 
    0.229480     0.055144     0.620534 
    0.019809     0.967525     0.915587 
    0.215814     0.732208     0.918034 
    0.488800     0.720043     0.817330 
    0.307432     0.267552     0.563588 
    0.988182     0.221607     0.267460 
    0.047943     0.577736     0.950067 
    0.467070     0.961885     0.361679 
    0.692422     0.727804     0.434132 
    0.011447     0.775791     0.730928 
    0.951736     0.420287     0.048434 
    0.532000     0.034354     0.636027 
    0.627382     0.200776     0.913974 
    0.222002     0.244870     0.342343 
    0.624913     0.466527     0.739093 
    0.373597     0.023762     0.235773 
    0.372331     0.794127     0.082317 
    0.777695     0.752441     0.655532 
    0.375029     0.528571     0.258596 
    0.626653     0.973052     0.761546 
EA263   3.926  3.966  8.537 79.89 89.68 89.32 Sym.group:    1
1.0
    3.925036     0.058560    -0.023264
   -0.010130     3.951297     0.336444
    0.085704     0.780850     8.500328
  La  Ga   H
   4   2  24
Direct
    0.118413     0.173073     0.985121 
    0.865191     0.154073     0.450732 
    0.611828     0.642397     0.012858 
    0.392880     0.602095     0.543248 
    0.120493     0.701132     0.250111 
    0.977312     0.874795     0.738449 
    0.894144     0.597067     0.595617 
    0.045898     0.308129     0.709254 
    0.634253     0.152997     0.901260 
    0.394018     0.977964     0.818647 
    0.118570     0.628592     0.070858 
    0.862216     0.344241     0.207097 
    0.375502     0.068186     0.368063 
    0.538088     0.917127     0.323932 
    0.134831     0.140678     0.233319 
    0.598298     0.333881     0.235418 
    0.552898     0.683330     0.264527 
    0.398146     0.258682     0.186276 
    0.634839     0.556004     0.772678 
    0.240928     0.483242     0.772605 
    0.496279     0.782945     0.761942 
    0.461289     0.232605     0.750305 
    0.103130     0.697011     0.915067 
    0.799118     0.400466     0.816567 
    0.336178     0.083530     0.581216 
    0.617964     0.185456     0.678744 
    0.872066     0.667100     0.411738 
    0.317259     0.329325     0.364302 
    0.778855     0.937654     0.167792 
    0.600479     0.089803     0.100182 
EA264   4.647  5.620  5.919 98.36 111.98 66.57 Sym.group:    1
1.0
    4.646320    -0.047850     0.070588
    2.287082     5.132954     0.057365
   -2.298107     0.021383     5.454142
  La  Ga   H
   4   2  24
Direct
    0.879292     0.961279     0.708197 
    0.233983     0.586688     0.041893 
    0.782003     0.403826     0.953989 
    0.113470     0.030823     0.288356 
    0.740912     0.502624     0.485619 
    0.257638     0.495716     0.513620 
    0.454585     0.884414     0.616308 
    0.366561     0.701941     0.779651 
    0.249523     0.324271     0.246914 
    0.704817     0.149005     0.399750 
    0.619583     0.814650     0.407023 
    0.356907     0.312756     0.798577 
    0.890315     0.663239     0.213119 
    0.032428     0.206083     0.600260 
    0.534914     0.115456     0.386545 
    0.646558     0.302234     0.226069 
    0.743806     0.675907     0.752659 
    0.281323     0.835527     0.584542 
    0.377365     0.180286     0.582768 
    0.658463     0.674210     0.192610 
    0.120443     0.336208     0.785533 
    0.942673     0.796996     0.391883 
    0.518927     0.948587     0.169850 
    0.579381     0.192726     0.056954 
    0.771018     0.848545     0.983035 
    0.321122     0.063319     0.879144 
    0.455605     0.027475     0.807489 
    0.435272     0.796725     0.928193 
    0.251662     0.156491     0.031298 
    0.666347     0.943539     0.122463 
EA265   2.930 10.112  4.422 90.00 89.99 90.00 Sym.group:   51
1.0
    2.928736    -0.019964     0.066075
    0.069606    10.111684    -0.029006
   -0.098870     0.013186     4.420472
  La  Ga   H
   4   2  24
Direct
    0.499667     0.249802     0.765952 
    0.498247     0.749627     0.233840 
    0.498752     0.999654     0.500416 
    0.499045     0.499774     0.500458 
    0.999598     0.249328     0.238938 
    0.998323     0.749851     0.760999 
    0.999722     0.377874     0.873925 
    0.998191     0.877331     0.124952 
    0.998160     0.621245     0.127663 
    0.999777     0.122040     0.875638 
    0.499163     0.453874     0.992476 
    0.498604     0.953909     0.008136 
    0.498898     0.545375     0.008364 
    0.498878     0.045459     0.992390 
    0.498493     0.649190     0.819214 
    0.499402     0.148908     0.181129 
    0.499464     0.350034     0.181901 
    0.498421     0.850279     0.818927 
    0.998924     0.564643     0.816003 
    0.998827     0.063813     0.185774 
    0.999177     0.434562     0.185262 
    0.998577     0.935392     0.815127 
    0.998799     0.980675     0.159738 
    0.998968     0.481543     0.840878 
    0.998636     0.018582     0.841008 
    0.999135     0.517486     0.159956 
    0.999165     0.143505     0.522324 
    0.998678     0.643714     0.478617 
    0.998514     0.855836     0.478121 
    0.999336     0.355711     0.521503 
EA266   4.701  5.675  5.089 88.30 77.42 87.35 Sym.group:    1
1.0
    4.671988     0.069965     0.513905
    0.173650     5.672258     0.050485
    0.557658     0.088875     5.057565
  La  Ga   H
   4   2  24
Direct
    0.940770     0.864454     0.962083 
    0.557236     0.137482     0.536073 
    0.050712     0.384610     0.491572 
    0.447747     0.616984     0.005167 
    0.106614     0.916201     0.433844 
    0.389769     0.086443     0.063513 
    0.866948     0.477078     0.888797 
    0.469122     0.556047     0.497426 
    0.630734     0.525614     0.606790 
    0.027714     0.448098     0.999723 
    0.016845     0.672563     0.275446 
    0.475928     0.329527     0.224439 
    0.499760     0.315785     0.855507 
    0.015618     0.684228     0.643209 
    0.919083     0.174171     0.179611 
    0.576989     0.828552     0.317621 
    0.647582     0.840968     0.714748 
    0.858491     0.157116     0.777457 
    0.195148     0.606574     0.738401 
    0.750575     0.292137     0.852328 
    0.134416     0.344947     0.081696 
    0.801739     0.563020     0.234655 
    0.302450     0.393010     0.760608 
    0.756766     0.700176     0.649792 
    0.361222     0.657374     0.415227 
    0.697460     0.435742     0.261965 
    0.161294     0.155790     0.800344 
    0.745234     0.825557     0.373575 
    0.340603     0.844905     0.697250 
    0.746568     0.171193     0.126676 
EA267   5.240  4.418  6.082 91.84 85.37 110.76 Sym.group:    1
1.0
    5.204716     0.580979     0.165129
   -2.013771     3.931465    -0.054491
    0.299223     0.018263     6.074414
  La  Ga   H
   4   2  24
Direct
    0.335500     0.680768     0.046250 
    0.719997     0.347812     0.396152 
    0.657526     0.311178     0.946443 
    0.305659     0.649282     0.597380 
    0.002261     0.972619     0.250573 
    0.008685     0.019663     0.747687 
    0.236309     0.378637     0.312505 
    0.523846     0.867488     0.312523 
    0.117076     0.604802     0.327626 
    0.948660     0.639249     0.112416 
    0.399050     0.412055     0.276228 
    0.690923     0.993150     0.165318 
    0.666931     0.581651     0.680583 
    0.482415     0.147159     0.668386 
    0.892052     0.422073     0.671889 
    0.037773     0.342219     0.893308 
    0.654969     0.714069     0.781641 
    0.321126     0.991927     0.821609 
    0.012644     0.672440     0.862054 
    0.339381     0.336849     0.803638 
    0.772597     0.889434     0.971356 
    0.302671     0.115453     0.511665 
    0.687894     0.019916     0.646789 
    0.981177     0.774231     0.530368 
    0.986536     0.314947     0.127258 
    0.649210     0.648333     0.193457 
    0.227597     0.116692     0.034504 
    0.724381     0.871188     0.476119 
    0.320329     0.998329     0.355095 
    0.038554     0.212949     0.484722 
EA268   5.011  5.016  5.388 89.83 90.05 75.28 Sym.group:    1
1.0
    4.992371     0.348032    -0.247242
    0.923307     4.923782    -0.257933
    0.244241     0.251730     5.377047
  La  Ga   H
   4   2  24
Direct
    0.216841     0.651160     0.237543 
    0.291208     0.215305     0.605594 
    0.685433     0.239844     0.228170 
    0.191036     0.153928     0.090117 
    0.882555     0.863014     0.850681 
    0.596326     0.598138     0.599458 
    0.254492     0.653876     0.629773 
    0.647357     0.275132     0.745903 
    0.766533     0.709045     0.182458 
    0.592136     0.857678     0.141259 
    0.166533     0.541233     0.873796 
    0.823312     0.156816     0.614163 
    0.475702     0.734182     0.962720 
    0.914963     0.500564     0.729341 
    0.720153     0.988446     0.514366 
    0.006702     0.702111     0.554783 
    0.564480     0.889311     0.727429 
    0.632881     0.554459     0.953505 
    0.711275     0.882893     0.396567 
    0.311761     0.808430     0.882786 
    0.938924     0.299906     0.795951 
    0.172389     0.897990     0.709724 
    0.785843     0.345239     0.909287 
    0.889038     0.673256     0.440599 
    0.882761     0.542073     0.084444 
    0.029552     0.013721     0.418200 
    0.555002     0.087960     0.917199 
    0.432031     0.887361     0.387312 
    0.402577     0.413735     0.936971 
    0.964885     0.404768     0.382622 
EA269   5.621  5.304  4.634 75.58 90.72 102.86 Sym.group:    2
1.0
    5.618850    -0.041743    -0.133521
   -1.137886     5.177852     0.175732
    0.056498     1.041719     4.515045
  La  Ga   H
   4   2  24
Direct
    0.975318     0.344816     0.804464 
    0.467370     0.323764     0.813467 
    0.026847     0.653729     0.196875 
    0.534754     0.674765     0.187885 
    0.304499     0.056410     0.375802 
    0.697632     0.942174     0.625544 
    0.294980     0.720820     0.494018 
    0.274316     0.644847     0.859134 
    0.240525     0.417164     0.456310 
    0.231015     0.374680     0.144333 
    0.707176     0.277803     0.507317 
    0.727834     0.353714     0.142194 
    0.761643     0.581390     0.545078 
    0.771106     0.623820     0.857030 
    0.333698     0.936939     0.019251 
    0.598838     0.040420     0.264915 
    0.093976     0.061440     0.125250 
    0.133175     0.005964     0.851983 
    0.668453     0.061623     0.982135 
    0.403295     0.958120     0.736416 
    0.908147     0.937061     0.876081 
    0.869044     0.992567     0.149304 
    0.001740     0.795735     0.610434 
    0.860347     0.889057     0.357112 
    0.887516     0.237751     0.269378 
    0.527773     0.300519     0.379340 
    0.000294     0.202728     0.390871 
    0.141572     0.109390     0.644087 
    0.114530     0.760817     0.731904 
    0.474426     0.698017     0.621996 
EA270   3.879  4.135  8.300 88.71 89.60 90.19 Sym.group:    1
1.0
    3.878715     0.011774    -0.002185
   -0.026427     4.134615     0.011450
    0.061926     0.164678     8.298614
  La  Ga   H
   4   2  24
Direct
    0.494146     0.503756     0.858786 
    0.492551     0.489147     0.153775 
    0.993750     0.995913     0.140710 
    0.001651     0.998918     0.845794 
    0.000479     0.495108     0.496614 
    0.498145     0.996579     0.502637 
    0.331988     0.651305     0.621585 
    0.355047     0.365728     0.389583 
    0.643955     0.646728     0.376841 
    0.624358     0.382372     0.625084 
    0.377621     0.649086     0.380753 
    0.368942     0.349546     0.627876 
    0.650865     0.644430     0.626532 
    0.638509     0.343773     0.387644 
    0.159147     0.857429     0.380251 
    0.151884     0.142402     0.613615 
    0.863695     0.861191     0.615547 
    0.861965     0.127318     0.370881 
    0.110846     0.862405     0.614534 
    0.138127     0.154413     0.366509 
    0.868039     0.860848     0.381964 
    0.846353     0.168917     0.617388 
    0.059763     0.425178     0.739719 
    0.039076     0.588512     0.259139 
    0.948037     0.400497     0.263277 
    0.929028     0.583323     0.734203 
    0.569207     0.898159     0.268578 
    0.562845     0.112207     0.732430 
    0.468323     0.924906     0.744529 
    0.441792     0.058531     0.256537 
EA271   5.305  5.295  4.666 86.48 85.61 92.03 Sym.group:    1
1.0
    5.301284    -0.065793     0.191306
   -0.126584     5.291917     0.133244
    0.191417     0.174247     4.658385
  La  Ga   H
   4   2  24
Direct
    0.163875     0.977447     0.389578 
    0.655997     0.019817     0.504400 
    0.983798     0.159169     0.887548 
    0.013129     0.657455     0.982487 
    0.519628     0.530167     0.821302 
    0.497317     0.508399     0.321250 
    0.296581     0.678051     0.628175 
    0.788352     0.384987     0.504451 
    0.323486     0.231866     0.034280 
    0.699548     0.733274     0.227862 
    0.765254     0.681224     0.651852 
    0.250499     0.327048     0.564259 
    0.669382     0.246955     0.128045 
    0.376662     0.780667     0.055942 
    0.693395     0.865534     0.919055 
    0.369102     0.209271     0.767737 
    0.204279     0.602397     0.331109 
    0.797594     0.341337     0.242681 
    0.348519     0.849630     0.810955 
    0.613737     0.226925     0.864396 
    0.875239     0.701939     0.415700 
    0.166154     0.358289     0.220388 
    0.134250     0.450413     0.620158 
    0.858629     0.444437     0.662487 
    0.452206     0.190592     0.174997 
    0.472977     0.889589     0.166281 
    0.038255     0.604070     0.496877 
    0.614722     0.004639     0.011412 
    0.003231     0.330612     0.302399 
    0.336613     0.019051     0.801262 
EA272   5.121  5.122  5.208 82.08 82.08 76.73 Sym.group:    8
1.0
    5.117469     0.124366    -0.152172
    1.050782     5.010832    -0.136037
    0.852612     0.692912     5.091282
  La  Ga   H
   4   2  24
Direct
    0.431620     0.882578     0.445381 
    0.416675     0.417378     0.920967 
    0.880483     0.430929     0.446054 
    0.806432     0.806537     0.805181 
    0.391001     0.393612     0.421321 
    0.059880     0.060183     0.069579 
    0.218960     0.220058     0.262572 
    0.480014     0.009608     0.047752 
    0.009279     0.479436     0.048797 
    0.442256     0.776669     0.068802 
    0.051909     0.408508     0.792245 
    0.780185     0.058145     0.450181 
    0.390934     0.833117     0.844305 
    0.833114     0.391258     0.845137 
    0.872964     0.870446     0.400494 
    0.627410     0.060856     0.096422 
    0.059589     0.626586     0.097146 
    0.039850     0.039854     0.575043 
    0.622843     0.176551     0.627928 
    0.616503     0.617075     0.159872 
    0.176692     0.624796     0.628069 
    0.210680     0.211517     0.685729 
    0.688327     0.214766     0.229401 
    0.214947     0.690674     0.227908 
    0.830739     0.831441     0.181544 
    0.191144     0.815259     0.835980 
    0.814335     0.191103     0.836037 
    0.057151     0.780152     0.450228 
    0.408706     0.052821     0.792420 
    0.775689     0.441899     0.069023 
EA273   3.736  2.917 12.862 95.08 93.53 110.55 Sym.group:    1
1.0
    3.733994    -0.107601     0.049494
   -0.944891     2.759503    -0.016133
   -1.004162    -1.474038    12.737480
  La  Ga   H
   4   2  24
Direct
    0.145639     0.589557     0.628065 
    0.508240     0.005965     0.948194 
    0.014584     0.803626     0.102861 
    0.540053     0.621601     0.260568 
    0.653516     0.777427     0.479366 
    0.032820     0.424507     0.402969 
    0.119636     0.920577     0.258625 
    0.096349     0.310036     0.992645 
    0.949328     0.305680     0.228903 
    0.191419     0.061262     0.507801 
    0.480484     0.222282     0.553682 
    0.428970     0.498372     0.081136 
    0.221264     0.993967     0.342033 
    0.501450     0.147034     0.375876 
    0.604035     0.116411     0.129735 
    0.615629     0.509778     0.847525 
    0.862680     0.026878     0.705739 
    0.567896     0.292529     0.636731 
    0.818723     0.296083     0.747911 
    0.575833     0.745163     0.779133 
    0.687044     0.251381     0.810722 
    0.203081     0.156165     0.753555 
    0.244323     0.610736     0.804060 
    0.674899     0.641903     0.724743 
    0.088587     0.295124     0.884016 
    0.919858     0.687817     0.938509 
    0.414701     0.174652     0.740811 
    0.959223     0.023336     0.852094 
    0.073487     0.715870     0.808280 
    0.729862     0.890515     0.609583 
EA274   3.023  3.223 14.165 93.18 95.17 74.75 Sym.group:    1
1.0
    3.022306     0.052192     0.048874
    0.794949     3.122360    -0.066258
   -1.501357    -0.129280    14.084245
  La  Ga   H
   4   2  24
Direct
    0.295561     0.581987     0.621806 
    0.158939     0.906156     0.930539 
    0.382748     0.530177     0.109118 
    0.558779     0.046884     0.274435 
    0.734441     0.070493     0.481635 
    0.271937     0.615328     0.406390 
    0.008818     0.182372     0.178124 
    0.976340     0.114308     0.063081 
    0.131841     0.633023     0.239958 
    0.774669     0.565089     0.527630 
    0.274255     0.070251     0.532175 
    0.556937     0.273963     0.985291 
    0.900027     0.470315     0.323387 
    0.070775     0.127195     0.376851 
    0.772680     0.930056     0.136492 
    0.751830     0.497582     0.879401 
    0.152202     0.644696     0.784013 
    0.744568     0.415964     0.738994 
    0.337279     0.087867     0.719464 
    0.033750     0.108153     0.798785 
    0.102143     0.326313     0.821564 
    0.043194     0.175938     0.700092 
    0.506411     0.454425     0.764745 
    0.901654     0.763718     0.737680 
    0.599248     0.036089     0.824420 
    0.808897     0.597473     0.006934 
    0.700260     0.957043     0.692715 
    0.644723     0.761529     0.823702 
    0.536314     0.316918     0.874173 
    0.862253     0.140028     0.607067 
EA275   5.314  5.185  5.667 109.41 62.63 93.72 Sym.group:    1
1.0
    2.643907     0.581067    -4.572936
   -1.711145     4.894414     0.023838
    5.661795    -0.016872     0.243442
  La  Ga   H
   4   2  24
Direct
    0.239126     0.408524     0.428656 
    0.697990     0.604761     0.526888 
    0.231965     0.599316     0.025454 
    0.782729     0.395489     0.950542 
    0.739236     0.006971     0.250319 
    0.259303     0.007310     0.670272 
    0.722194     0.021240     0.710306 
    0.299190     0.979069     0.256974 
    0.817128     0.960882     0.788511 
    0.214350     0.204091     0.020137 
    0.406359     0.217948     0.986856 
    0.550251     0.123849     0.118369 
    0.624353     0.760333     0.988574 
    0.511576     0.900387     0.936333 
    0.919415     0.038776     0.918613 
    0.311735     0.779914     0.354189 
    0.603946     0.000417     0.604733 
    0.162964     0.013291     0.211764 
    0.943853     0.883879     0.386716 
    0.860304     0.233327     0.501029 
    0.064683     0.797724     0.453820 
    0.914262     0.711191     0.767002 
    0.555798     0.724912     0.298618 
    0.392646     0.904803     0.872649 
    0.573061     0.314909     0.730088 
    0.452249     0.282508     0.598374 
    0.038294     0.116675     0.576053 
    0.984709     0.292232     0.175973 
    0.094047     0.943983     0.039002 
    0.058355     0.720151     0.818545 
EA276   4.944  5.677  5.245 66.10 98.86 100.40 Sym.group:    1
1.0
    4.937559    -0.023693     0.252411
   -1.014280     5.577585     0.291158
   -1.048350     1.719286     4.842890
  La  Ga   H
   4   2  24
Direct
    0.671951     0.595353     0.688402 
    0.269485     0.683514     0.204189 
    0.174649     0.406583     0.881246 
    0.670388     0.307499     0.370070 
    0.981771     0.971953     0.314647 
    0.957448     0.987355     0.802458 
    0.286252     0.059192     0.902569 
    0.737489     0.715282     0.258425 
    0.083342     0.289809     0.550413 
    0.310475     0.077370     0.180253 
    0.276670     0.091976     0.522705 
    0.381386     0.993138     0.624385 
    0.626948     0.937760     0.363458 
    0.460267     0.992025     0.299072 
    0.541624     0.984519     0.948835 
    0.637065     0.940924     0.683659 
    0.647948     0.898848     0.054504 
    0.562164     0.240770     0.003366 
    0.465490     0.224590     0.754048 
    0.257971     0.299331     0.302627 
    0.386106     0.775423     0.798499 
    0.545317     0.614058     0.016134 
    0.970437     0.559056     0.480478 
    0.264851     0.760277     0.536693 
    0.342562     0.337914     0.575600 
    0.780418     0.222536     0.800816 
    0.756327     0.219667     0.045923 
    0.030231     0.338933     0.244283 
    0.092360     0.778676     0.726323 
    0.861470     0.657133     0.037867 
EA277   2.770  4.864 10.076 93.68 88.00 73.63 Sym.group:    1
1.0
    2.766374    -0.126842    -0.046563
    1.583409     4.599151    -0.020692
    0.483780    -0.805748    10.032228
  La  Ga   H
   4   2  24
Direct
    0.487202     0.887304     0.149587 
    0.747322     0.317006     0.738843 
    0.205714     0.427529     0.265489 
    0.470823     0.860750     0.856981 
    0.903750     0.993491     0.397164 
    0.066638     0.751887     0.614047 
    0.344301     0.310155     0.061044 
    0.432889     0.993836     0.665863 
    0.826483     0.204044     0.151455 
    0.055450     0.642744     0.448662 
    0.170209     0.573758     0.077203 
    0.700822     0.400718     0.415513 
    0.254417     0.281729     0.891410 
    0.532090     0.750413     0.335980 
    0.922533     0.034362     0.008036 
    0.273782     0.243582     0.441114 
    0.740576     0.542239     0.988078 
    0.239035     0.352641     0.594864 
    0.615936     0.433458     0.944820 
    0.677764     0.488715     0.562853 
    0.697038     0.465360     0.115621 
    0.346446     0.162250     0.590635 
    0.211787     0.207479     0.016769 
    0.612060     0.583304     0.414923 
    0.034905     0.704899     0.997941 
    0.191813     0.419877     0.466833 
    0.128007     0.541887     0.853866 
    0.448195     0.899609     0.501564 
    0.788215     0.174355     0.928865 
    0.805127     0.220846     0.543830 
EA278   3.720  2.973 12.731 89.24 93.36 69.57 Sym.group:    1
1.0
    3.708495     0.200018    -0.214203
    0.883888     2.837975    -0.073144
   -0.042640     0.518237    12.720725
  La  Ga   H
   4   2  24
Direct
    0.990499     0.646987     0.979059 
    0.263430     0.248926     0.507400 
    0.773251     0.717909     0.324723 
    0.397276     0.952129     0.821109 
    0.590671     0.329383     0.101997 
    0.198147     0.005991     0.180558 
    0.753790     0.223599     0.432641 
    0.897405     0.671612     0.145575 
    0.666571     0.562614     0.495543 
    0.190194     0.004183     0.351484 
    0.743436     0.237827     0.225395 
    0.847876     0.921744     0.480549 
    0.324592     0.459808     0.271010 
    0.408077     0.944489     0.999826 
    0.372295     0.417563     0.355872 
    0.605516     0.229790     0.637839 
    0.561627     0.357941     0.947477 
    0.234230     0.947563     0.650960 
    0.744864     0.298494     0.591508 
    0.898532     0.842102     0.575534 
    0.427466     0.699286     0.606527 
    0.047510     0.172007     0.672021 
    0.361776     0.458987     0.696978 
    0.157009     0.559705     0.723824 
    0.778434     0.286281     0.755575 
    0.983308     0.643326     0.816862 
    0.838338     0.228399     0.863666 
    0.789084     0.953876     0.715622 
    0.917567     0.622842     0.620332 
    0.719416     0.698693     0.695087 
EA279   5.165  5.260  5.680 77.22 86.47 118.82 Sym.group:    2
1.0
    2.604732    -4.458917     0.116674
    2.650885     4.501343     0.612143
    0.820328     0.221257     5.616478
  La  Ga   H
   4   2  24
Direct
    0.007976     0.033109     0.252659 
    0.989932     0.963404     0.750237 
    0.376101     0.741757     0.313003 
    0.621417     0.254742     0.688944 
    0.694296     0.411737     0.154438 
    0.303330     0.584715     0.847134 
    0.717107     0.749807     0.079726 
    0.984521     0.682618     0.540786 
    0.430689     0.130310     0.066408 
    0.332897     0.413832     0.604166 
    0.071453     0.449059     0.140548 
    0.654761     0.907692     0.560018 
    0.280786     0.246743     0.923241 
    0.013160     0.313640     0.461407 
    0.568191     0.866097     0.934961 
    0.665560     0.582776     0.397222 
    0.925645     0.546658     0.861863 
    0.344088     0.090944     0.441604 
    0.932201     0.254480     0.920601 
    0.696358     0.153687     0.368196 
    0.623316     0.573085     0.837295 
    0.923965     0.582295     0.369083 
    0.252005     0.875607     0.981973 
    0.317403     0.312476     0.448821 
    0.064497     0.742314     0.083845 
    0.301863     0.843281     0.632977 
    0.374326     0.423876     0.164210 
    0.073828     0.414666     0.633594 
    0.745824     0.115521     0.017306 
    0.681276     0.684293     0.554261 
EA280   5.348  5.621  5.633 79.58 117.90 117.55 Sym.group:    1
1.0
    2.933738     2.283679    -3.843910
   -1.637064     3.239413     4.292235
    2.716018    -2.498763     4.255303
  La  Ga   H
   4   2  24
Direct
    0.603628     0.829358     0.478125 
    0.305067     0.175380     0.527402 
    0.803010     0.526082     0.178361 
    0.105569     0.477695     0.826672 
    0.207528     0.000565     0.000230 
    0.711265     0.002799     0.004966 
    0.899528     0.229671     0.449505 
    0.208448     0.761587     0.544380 
    0.699591     0.539929     0.760740 
    0.400040     0.460170     0.242157 
    0.211035     0.708246     0.114174 
    0.395403     0.295688     0.894791 
    0.897548     0.894088     0.298159 
    0.719641     0.114344     0.715314 
    0.678717     0.240934     0.451314 
    0.994556     0.764771     0.551725 
    0.496851     0.560391     0.770241 
    0.173308     0.446247     0.233089 
    0.315478     0.893034     0.809190 
    0.604734     0.109840     0.194195 
    0.113920     0.194366     0.110131 
    0.816568     0.807065     0.894149 
    0.690845     0.298022     0.889469 
    0.507743     0.707848     0.111286 
    0.011460     0.109780     0.705362 
    0.186786     0.884886     0.296442 
    0.095073     0.399406     0.465283 
    0.234883     0.576112     0.533829 
    0.732936     0.538436     0.596307 
    0.595626     0.463512     0.402844 
EA281   2.839  2.831 16.134 90.00 90.02 89.99 Sym.group:    1
1.0
    2.830774    -0.048010    -0.212546
    0.051698     2.829887     0.042107
    1.196678    -0.262008    16.087464
  La  Ga   H
   4   2  24
Direct
    0.004379     0.998881     0.841031 
    0.513631     0.488692     0.154587 
    0.488994     0.504321     0.654012 
    0.003436     0.993479     0.340184 
    0.980602     0.002930     0.505655 
    0.521117     0.492943     0.989232 
    0.990015     0.004691     0.625551 
    0.503610     0.493386     0.388181 
    0.508418     0.989023     0.247601 
    0.980281     0.004895     0.715035 
    0.508681     0.491981     0.281687 
    0.481929     0.004753     0.563921 
    0.984873     0.498935     0.747267 
    0.989400     0.497392     0.436840 
    0.502115     0.499537     0.869372 
    0.014570     0.987341     0.106576 
    0.010625     0.491198     0.247079 
    0.513228     0.498724     0.780162 
    0.010669     0.988126     0.213016 
    0.016524     0.497555     0.931042 
    0.508598     0.004097     0.748022 
    0.517636     0.989948     0.057869 
    0.504339     0.995154     0.930938 
    0.022862     0.993996     0.026913 
    0.017110     0.490263     0.058022 
    0.015007     0.992138     0.978257 
    0.989890     0.503554     0.564038 
    0.475702     0.506949     0.467940 
    0.494364     0.002280     0.436707 
    0.486474     0.502904     0.516586 
EA282   4.116  3.214  5.625 74.37 103.07 110.45 Sym.group:    1
1.0
    3.001169    -2.815988    -0.058285
    1.242015     2.964479     0.011423
   -0.084217     1.657938     5.374166
  La  Ga   H
   2   1  12
Direct
    0.131660     0.443639     0.754071 
    0.257975     0.230517     0.350674 
    0.623790     0.001822     0.029600 
    0.202292     0.864087     0.019408 
    0.961520     0.717794     0.162975 
    0.936272     0.455722     0.035456 
    0.516001     0.447253     0.058113 
    0.779822     0.226122     0.460631 
    0.832495     0.878851     0.600276 
    0.487217     0.750783     0.536451 
    0.808680     0.696605     0.478676 
    0.610751     0.895183     0.326157 
    0.568802     0.238189     0.709711 
    0.793192     0.782796     0.823829 
    0.872115     0.557170     0.301663 
EA283   3.788  4.785  3.715 76.71 89.22 86.15 Sym.group:    1
1.0
    3.787320     0.085794     0.015895
    0.212892     4.779212     0.103118
    0.017989     0.776056     3.632507
  La  Ga   H
   2   1  12
Direct
    0.453084     0.993039     0.180875 
    0.982774     0.635363     0.978950 
    0.907137     0.218284     0.598025 
    0.266810     0.333198     0.337780 
    0.339789     0.562073     0.493135 
    0.935829     0.878732     0.420250 
    0.921513     0.185836     0.069796 
    0.509638     0.450046     0.199219 
    0.502070     0.165458     0.624442 
    0.159381     0.680428     0.473800 
    0.720002     0.567966     0.511062 
    0.250260     0.976135     0.687767 
    0.310034     0.355360     0.793694 
    0.511574     0.769236     0.739825 
    0.524619     0.425298     0.929874 
EA284   3.708  3.778  4.899 105.68 89.70 90.45 Sym.group:    1
1.0
    3.707207    -0.018225    -0.092991
   -0.013879     3.775658    -0.121868
    0.138914    -1.170431     4.755009
  La  Ga   H
   2   1  12
Direct
    0.835645     0.930792     0.760834 
    0.279811     0.184925     0.381915 
    0.335108     0.527476     0.985326 
    0.836485     0.319469     0.148459 
    0.346055     0.947482     0.968926 
    0.020689     0.435946     0.741527 
    0.756453     0.375544     0.565569 
    0.768849     0.497219     0.964182 
    0.535259     0.664270     0.348648 
    0.808385     0.834411     0.245481 
    0.054171     0.667695     0.328628 
    0.778876     0.035330     0.192532 
    0.348357     0.109492     0.766883 
    0.340592     0.728830     0.608138 
    0.765682     0.485616     0.371736 
EA285   3.729  3.724  5.095 89.57 91.49 110.62 Sym.group:    1
1.0
    3.723344    -0.196461     0.079054
   -1.126680     3.549135     0.031595
   -0.245124    -0.083066     5.088459
  La  Ga   H
   2   1  12
Direct
    0.988132     0.151722     0.974330 
    0.719105     0.406769     0.414601 
    0.344668     0.787745     0.665081 
    0.459280     0.079217     0.113669 
    0.259558     0.518527     0.282175 
    0.098217     0.697656     0.145785 
    0.529854     0.629241     0.084995 
    0.207147     0.330400     0.601193 
    0.499842     0.229212     0.789129 
    0.146856     0.981244     0.393385 
    0.294470     0.763010     0.998826 
    0.685237     0.546495     0.984411 
    0.806373     0.929035     0.597090 
    0.870833     0.615616     0.797053 
    0.639635     0.875489     0.280586 
EA286   4.667  4.279  3.759 65.89 102.54 105.74 Sym.group:    2
1.0
    4.620236     0.620248    -0.217455
   -1.684071     3.921229     0.317712
   -0.799227     1.047096     3.520339
  La  Ga   H
   2   1  12
Direct
    0.063858     0.331511     0.214374 
    0.480732     0.895443     0.788469 
    0.772068     0.613102     0.501450 
    0.618027     0.394120     0.905401 
    0.136754     0.564430     0.612599 
    0.317745     0.334131     0.775105 
    0.655938     0.035191     0.275876 
    0.888428     0.191640     0.726859 
    0.555229     0.366548     0.264260 
    0.226248     0.891808     0.228552 
    0.926754     0.834466     0.098177 
    0.407906     0.662258     0.390089 
    0.393718     0.078903     0.191669 
    0.989160     0.859990     0.738056 
    0.150066     0.147224     0.811255 
EA287   3.973  3.865  5.233 85.17 109.60 118.07 Sym.group:    1
1.0
    3.919653     0.095570    -0.642115
   -1.898273     3.362077     0.165515
   -0.930054    -0.271650     5.142597
  La  Ga   H
   2   1  12
Direct
    0.148706     0.616484     0.380752 
    0.975698     0.001790     0.718873 
    0.492121     0.691574     0.009605 
    0.949059     0.488974     0.737020 
    0.504659     0.487941     0.732358 
    0.483431     0.004013     0.734919 
    0.964853     0.969213     0.110458 
    0.293166     0.936218     0.073930 
    0.250310     0.265795     0.116537 
    0.222576     0.148220     0.407555 
    0.651863     0.101231     0.342906 
    0.537440     0.295249     0.471964 
    0.835482     0.387951     0.953945 
    0.687006     0.281587     0.043561 
    0.645299     0.614193     0.372570 
EA288   5.053  2.868  4.740 98.80 102.77 91.44 Sym.group:    1
1.0
    5.031683    -0.079159     0.455748
   -0.005926     2.858154    -0.235771
   -1.465056    -0.359748     4.493751
  La  Ga   H
   2   1  12
Direct
    0.980786     0.214473     0.477055 
    0.554022     0.003527     0.982286 
    0.053951     0.804890     0.974922 
    0.616392     0.956501     0.534714 
    0.378685     0.092284     0.554503 
    0.220032     0.356247     0.876297 
    0.836255     0.580363     0.156280 
    0.588661     0.557140     0.336187 
    0.301023     0.744985     0.566549 
    0.393016     0.422567     0.646727 
    0.572564     0.295428     0.417412 
    0.268722     0.564844     0.271358 
    0.751034     0.801219     0.657054 
    0.736455     0.415260     0.769902 
    0.283948     0.189326     0.257823 
EA289   3.807  3.742  5.195 72.23 109.62 85.60 Sym.group:    1
1.0
    3.803243     0.176773     0.023519
    0.113721     3.739874    -0.070891
   -1.854392     1.728820     4.533981
  La  Ga   H
   2   1  12
Direct
    0.974586     0.594529     0.875469 
    0.572348     0.956662     0.108085 
    0.243613     0.210653     0.480512 
    0.423644     0.453477     0.749270 
    0.408681     0.763707     0.747263 
    0.787843     0.385090     0.229962 
    0.466824     0.402005     0.251022 
    0.049891     0.151165     0.741317 
    0.715830     0.161468     0.747039 
    0.103885     0.685421     0.412152 
    0.096959     0.003030     0.166428 
    0.710169     0.023802     0.495612 
    0.694626     0.504782     0.493548 
    0.980886     0.839757     0.484788 
    0.535548     0.685022     0.493692 
EA290   4.134  4.143  4.805 90.03 89.85 119.50 Sym.group:    1
1.0
    4.133989    -0.010136     0.005024
   -2.030931     3.610768     0.008896
    0.007112    -0.010717     4.805241
  La  Ga   H
   2   1  12
Direct
    0.664660     0.335588     0.253915 
    0.666969     0.336994     0.754723 
    0.330608     0.672250     0.003587 
    0.914695     0.087491     0.885661 
    0.913885     0.830176     0.886669 
    0.170857     0.086319     0.884329 
    0.914252     0.831834     0.125132 
    0.171378     0.088989     0.121830 
    0.914537     0.088006     0.122273 
    0.429233     0.573054     0.408391 
    0.434703     0.866679     0.412044 
    0.136995     0.570909     0.409719 
    0.434949     0.866549     0.596403 
    0.137208     0.570808     0.593713 
    0.435434     0.575481     0.594776 
EA291   6.712  2.801  3.578 92.02 79.68 85.26 Sym.group:    1
1.0
    6.683379     0.235063     0.576947
    0.137026     2.797504    -0.035224
    0.339807    -0.097789     3.560825
  La  Ga   H
   2   1  12
Direct
    0.313634     0.298285     0.396753 
    0.688746     0.495039     0.581034 
    0.998219     0.538365     0.999188 
    0.983981     0.824337     0.526590 
    0.998672     0.352575     0.516738 
    0.257736     0.792720     0.953461 
    0.758681     0.877319     0.023824 
    0.786352     0.241604     0.035509 
    0.204292     0.196865     0.939435 
    0.450585     0.202248     0.865997 
    0.591198     0.329734     0.104481 
    0.550207     0.785456     0.155061 
    0.400154     0.735239     0.904273 
    0.921326     0.984640     0.342476 
    0.107334     0.877989     0.639975 
EA292   3.880  4.258  3.970 89.95 91.26 89.69 Sym.group:    1
1.0
    3.878517     0.008789     0.119029
    0.012312     4.258128     0.030529
   -0.209136    -0.024695     3.964776
  La  Ga   H
   2   1  12
Direct
    0.766892     0.431540     0.750048 
    0.237587     0.432224     0.256979 
    0.490209     0.929071     0.990810 
    0.752187     0.045802     0.468069 
    0.244058     0.034042     0.517863 
    0.749907     0.184285     0.254853 
    0.248162     0.188839     0.740469 
    0.073292     0.805593     0.605128 
    0.927281     0.808627     0.409539 
    0.619650     0.813119     0.448015 
    0.400936     0.822168     0.530062 
    0.896534     0.938185     0.838575 
    0.098303     0.940814     0.170422 
    0.261296     0.568200     0.768017 
    0.740562     0.562218     0.235619 
EA293   4.471  3.499  4.763 105.05 111.61 75.35 Sym.group:    1
1.0
    4.448013     0.007595    -0.456712
    0.857403     3.382704    -0.260858
   -1.296025    -0.600183     4.543590
  La  Ga   H
   2   1  12
Direct
    0.656782     0.206939     0.331548 
    0.316964     0.777143     0.668507 
    0.969661     0.501116     0.985512 
    0.872818     0.984181     0.014208 
    0.765169     0.766086     0.597314 
    0.213752     0.009765     0.278304 
    0.344523     0.725956     0.179159 
    0.226625     0.092311     0.038039 
    0.168864     0.231301     0.404209 
    0.873040     0.999038     0.732214 
    0.583367     0.243782     0.773514 
    0.070780     0.362762     0.655406 
    0.597896     0.636034     0.076615 
    0.428921     0.333487     0.898891 
    0.923603     0.612863     0.342286 
EA294   4.080  4.684  4.025 106.51 103.11 105.64 Sym.group:    1
1.0
    4.069143     0.298705     0.039031
   -1.418071     2.546230    -3.666983
   -1.096384     2.032811     3.296948
  La  Ga   H
   2   1  12
Direct
    0.717358     0.209930     0.505505 
    0.225239     0.742852     0.558066 
    0.540438     0.534621     0.087402 
    0.919810     0.907012     0.263041 
    0.129988     0.558187     0.984404 
    0.540985     0.150000     0.964437 
    0.653970     0.612823     0.735305 
    0.238535     0.226686     0.652649 
    0.923952     0.476057     0.042276 
    0.495726     0.876900     0.047868 
    0.204240     0.274070     0.247063 
    0.973875     0.199048     0.082265 
    0.961158     0.845840     0.904401 
    0.837598     0.981700     0.828044 
    0.177146     0.919295     0.077678 
EA295   3.745  3.786  5.399 97.94 89.95 62.35 Sym.group:    1
1.0
    1.906209     3.223871    -0.010163
   -1.985263     3.214377    -0.241229
    0.411641    -0.220549     5.378544
  La  Ga   H
   2   1  12
Direct
    0.045198     0.945759     0.323866 
    0.950759     0.093694     0.849430 
    0.651621     0.663685     0.575006 
    0.432798     0.567583     0.829736 
    0.962368     0.593370     0.873268 
    0.461770     0.068795     0.887802 
    0.425429     0.553884     0.025887 
    0.031210     0.547265     0.037095 
    0.511275     0.979531     0.074449 
    0.594851     0.842245     0.209095 
    0.539399     0.403525     0.180105 
    0.022584     0.430577     0.201176 
    0.397691     0.319733     0.360125 
    0.137510     0.516033     0.604748 
    0.470499     0.145925     0.534231 
EA296   3.780  2.979  6.401 89.88 91.90 67.62 Sym.group:    1
1.0
    2.184825     2.953712    -0.888209
   -1.567108     2.511517    -0.328861
    0.568573     1.190660     6.263047
  La  Ga   H
   2   1  12
Direct
    0.453158     0.123691     0.761984 
    0.478304     0.122675     0.240023 
    0.036668     0.814292     0.996711 
    0.865880     0.408279     0.795661 
    0.068389     0.846566     0.256648 
    0.887219     0.417466     0.228834 
    0.977525     0.604225     0.373880 
    0.957054     0.117831     0.454248 
    0.438865     0.626501     0.507786 
    0.736958     0.155757     0.509374 
    0.206957     0.526174     0.485641 
    0.202616     0.080343     0.497544 
    0.040122     0.838458     0.713414 
    0.706437     0.664866     0.520537 
    0.931504     0.646673     0.616048 
EA297   3.201  7.165  3.087 102.35 105.79 93.42 Sym.group:    1
1.0
    3.190563     0.228889    -0.131995
   -1.003589     6.742842    -2.205623
   -0.731079     0.169187     2.993980
  La  Ga   H
   2   1  12
Direct
    0.993037     0.722594     0.110874 
    0.001222     0.266723     0.700220 
    0.506409     0.997738     0.879426 
    0.875415     0.524649     0.478632 
    0.558574     0.464673     0.792058 
    0.430354     0.531108     0.007599 
    0.132660     0.469851     0.336050 
    0.431143     0.380826     0.356047 
    0.583988     0.602687     0.432837 
    0.401289     0.701841     0.687435 
    0.615513     0.326631     0.134906 
    0.367330     0.154048     0.283478 
    0.564580     0.901111     0.348983 
    0.986891     0.924738     0.682959 
    0.011650     0.025941     0.218408 
EA298   5.088  5.312  2.862 74.60 90.06 61.41 Sym.group:   71
1.0
    5.087637     0.030458     0.023670
    2.511607     4.641175     0.605000
   -0.019167     0.512883     2.815303
  La  Ga   H
   2   1  12
Direct
    0.017932     0.963239     0.250382 
    0.316050     0.366600     0.548017 
    0.666915     0.665124     0.893177 
    0.019590     0.665085     0.898858 
    0.309879     0.986898     0.737515 
    0.763274     0.294020     0.587014 
    0.632031     0.343162     0.062722 
    0.849403     0.665512     0.394372 
    0.392940     0.035298     0.211356 
    0.023526     0.343261     0.060994 
    0.570970     0.035285     0.211819 
    0.484212     0.665009     0.394904 
    0.314460     0.664636     0.899404 
    0.941360     0.294036     0.586533 
    0.702186     0.987197     0.737057 
EA299   5.259  3.785  3.597 89.87 109.87 100.93 Sym.group:    1
1.0
    4.107060    -0.082978    -3.283256
   -0.823881     3.694528     0.025996
    1.155649     0.242012     3.397204
  La  Ga   H
   2   1  12
Direct
    0.515347     0.994687     0.856963 
    0.076734     0.413538     0.134566 
    0.877929     0.846894     0.536497 
    0.706450     0.542330     0.771391 
    0.152781     0.171886     0.673704 
    0.472267     0.263457     0.334542 
    0.459155     0.471178     0.570708 
    0.359202     0.451877     0.777782 
    0.249316     0.960432     0.224557 
    0.928257     0.882470     0.063326 
    0.140146     0.644727     0.665506 
    0.704609     0.542589     0.123322 
    0.492927     0.745301     0.347383 
    0.469384     0.463510     0.111098 
    0.763134     0.250021     0.479533 
EA300   3.689  3.742  4.967 90.57 74.76 90.18 Sym.group:    1
1.0
    3.682600     0.051090     0.212649
   -0.062551     3.740937    -0.020183
    1.027449    -0.006307     4.860061
  La  Ga   H
   2   1  12
Direct
    0.060608     0.917641     0.116114 
    0.829020     0.417444     0.777207 
    0.454963     0.423747     0.371876 
    0.259440     0.415838     0.009658 
    0.555171     0.127073     0.121687 
    0.900675     0.420834     0.326538 
    0.193443     0.930264     0.684704 
    0.587203     0.923073     0.447135 
    0.347205     0.670596     0.723762 
    0.733226     0.914563     0.549696 
    0.337941     0.146205     0.721127 
    0.602260     0.916002     0.838118 
    0.109734     0.119722     0.463469 
    0.552869     0.711798     0.123007 
    0.105864     0.730386     0.469818 
EA301   5.224  3.612  3.774 92.89 108.68 79.38 Sym.group:    1
1.0
    5.208589    -0.385463    -0.093270
    0.930925     3.472669     0.342515
   -1.165818    -0.238971     3.581970
  La  Ga   H
   2   1  12
Direct
    0.758169     0.397785     0.403376 
    0.159869     0.969371     0.080456 
    0.311691     0.460043     0.639521 
    0.289184     0.997250     0.637454 
    0.554519     0.949854     0.495565 
    0.492563     0.121453     0.988079 
    0.349602     0.415573     0.208858 
    0.916379     0.568761     0.010108 
    0.070928     0.481179     0.866455 
    0.829607     0.823988     0.158044 
    0.717091     0.949738     0.708449 
    0.592654     0.913483     0.100369 
    0.586158     0.624461     0.847154 
    0.982391     0.829781     0.517326 
    0.752428     0.178868     0.889114 
EA302   3.724  3.725  5.324 69.86 110.06 89.48 Sym.group:    1
1.0
    3.724433     0.013178    -0.007695
    0.020395     3.725136     0.014625
   -1.823021     1.824617     4.657588
  La  Ga   H
   2   1  12
Direct
    0.815232     0.188770     0.625485 
    0.183109     0.819193     0.368643 
    0.490280     0.501786     0.997089 
    0.289412     0.371764     0.259682 
    0.702793     0.634221     0.737597 
    0.029856     0.630725     0.739601 
    0.958859     0.378300     0.251502 
    0.372496     0.968256     0.739806 
    0.628288     0.709378     0.257176 
    0.624333     0.038099     0.254141 
    0.368747     0.296709     0.737153 
    0.985871     0.249474     0.997231 
    0.988076     0.758465     0.996938 
    0.753886     0.998708     0.997104 
    0.245576     0.999301     0.997034 
EA303   5.343  4.968  5.187 75.45 88.05 102.42 Sym.group:    1
1.0
    5.336173    -0.131840     0.224155
   -0.950361     4.876617     0.015022
   -0.001662     1.311371     5.018043
  La  Ga   H
   4   2  24
Direct
    0.250889     0.213550     0.084940 
    0.311978     0.622499     0.382049 
    0.700540     0.109164     0.434824 
    0.775265     0.337028     0.889764 
    0.068835     0.923855     0.730249 
    0.846401     0.738290     0.166300 
    0.428573     0.282897     0.684451 
    0.981347     0.429992     0.205513 
    0.157883     0.496291     0.778048 
    0.116411     0.581228     0.971889 
    0.080860     0.216342     0.428310 
    0.309937     0.006031     0.460368 
    0.250265     0.837019     0.014376 
    0.398421     0.676993     0.877578 
    0.368160     0.230285     0.455139 
    0.447354     0.080624     0.778744 
    0.686396     0.747202     0.751132 
    0.933992     0.474566     0.495896 
    0.497908     0.624340     0.001227 
    0.680330     0.675691     0.609743 
    0.442302     0.922066     0.008431 
    0.384693     0.819939     0.692474 
    0.662851     0.508564     0.485064 
    0.012395     0.889637     0.372854 
    0.585767     0.448236     0.206057 
    0.609896     0.916931     0.113679 
    0.700948     0.938455     0.823441 
    0.994961     0.641126     0.601167 
    0.107913     0.293200     0.710194 
    0.434543     0.464917     0.738568 
EA304   5.241  5.287  5.669 74.18 89.90 119.67 Sym.group:    1
1.0
    5.240708    -0.036566     0.029328
   -2.585059     4.611612     0.003186
   -0.007883     1.763165     5.387323
  La  Ga   H
   4   2  24
Direct
    0.101748     0.582317     0.566822 
    0.515113     0.385634     0.107233 
    0.487119     0.319541     0.607807 
    0.853986     0.093210     0.153814 
    0.197294     0.744572     0.046021 
    0.831842     0.930403     0.698297 
    0.145678     0.947633     0.270812 
    0.161074     0.028839     0.404656 
    0.183790     0.359798     0.345493 
    0.137951     0.898457     0.724085 
    0.233429     0.493478     0.929246 
    0.427982     0.889297     0.744187 
    0.100352     0.201724     0.801765 
    0.475214     0.021256     0.399124 
    0.912393     0.497364     0.924872 
    0.814564     0.766405     0.468641 
    0.553507     0.788738     0.995468 
    0.791055     0.575951     0.784102 
    0.482211     0.659521     0.316133 
    0.489902     0.946628     0.590772 
    0.905057     0.460544     0.273193 
    0.459681     0.602169     0.770857 
    0.388735     0.920307     0.245919 
    0.754962     0.179717     0.800183 
    0.803082     0.672766     0.301300 
    0.539793     0.099082     0.938944 
    0.816820     0.197124     0.473129 
    0.203059     0.095189     0.950919 
    0.550585     0.746505     0.461868 
    0.878873     0.787830     0.016261 
EA305   5.327  5.311  5.271 86.59 82.06 63.14 Sym.group:    1
1.0
    3.017305     4.389694    -0.074308
   -2.545537     4.659951    -0.108861
    0.399232     0.697070     5.209922
  La  Ga   H
   4   2  24
Direct
    0.317653     0.214649     0.599321 
    0.301515     0.428078     0.055459 
    0.860998     0.041525     0.157773 
    0.775616     0.562726     0.307964 
    0.838287     0.664221     0.789168 
    0.393716     0.884094     0.999726 
    0.235211     0.632930     0.521630 
    0.673139     0.443589     0.984804 
    0.101155     0.641563     0.385075 
    0.230690     0.642210     0.680857 
    0.399611     0.804192     0.488999 
    0.063251     0.785950     0.866334 
    0.102632     0.028652     0.433718 
    0.504987     0.399221     0.348444 
    0.475408     0.783578     0.635076 
    0.491980     0.001190     0.263890 
    0.097706     0.988429     0.791646 
    0.337091     0.736120     0.273007 
    0.069905     0.923991     0.532443 
    0.737792     0.240817     0.519356 
    0.617587     0.450060     0.750298 
    0.899638     0.344679     0.635575 
    0.946359     0.167271     0.767740 
    0.769985     0.075292     0.559694 
    0.698132     0.164872     0.811283 
    0.149629     0.177281     0.267972 
    0.627171     0.039421     0.868807 
    0.770728     0.870676     0.524751 
    0.009447     0.314810     0.958007 
    0.507928     0.500402     0.646627 
EA306   6.133  4.172  5.549 100.80 92.50 108.72 Sym.group:    1
1.0
    6.129892     0.015544    -0.190179
   -1.356119     3.940907    -0.199219
   -0.069453    -0.847450     5.483557
  La  Ga   H
   4   2  24
Direct
    0.434533     0.922340     0.553716 
    0.107123     0.219357     0.460229 
    0.751394     0.552548     0.511858 
    0.511621     0.595343     0.052444 
    0.195057     0.929738     0.999877 
    0.854795     0.188162     0.893737 
    0.193187     0.377441     0.824912 
    0.262223     0.622399     0.773593 
    0.271894     0.202096     0.785027 
    0.000226     0.935424     0.759713 
    0.438713     0.442171     0.646160 
    0.485436     0.056256     0.961874 
    0.083012     0.539822     0.023708 
    0.167572     0.306424     0.111450 
    0.240895     0.672425     0.244080 
    0.413129     0.270462     0.308688 
    0.845264     0.028964     0.138098 
    0.049255     0.625251     0.315222 
    0.778458     0.064731     0.547112 
    0.096001     0.736581     0.561906 
    0.634602     0.820433     0.784299 
    0.723620     0.366150     0.132819 
    0.820963     0.683917     0.901342 
    0.695135     0.050966     0.309926 
    0.865992     0.674247     0.041716 
    0.867277     0.796322     0.246054 
    0.943898     0.437707     0.232719 
    0.637875     0.317460     0.798585 
    0.980681     0.490481     0.729862 
    0.590479     0.122996     0.233469 
EA307   5.158  5.193  5.159 85.73 107.38 97.61 Sym.group:    1
1.0
    5.148494    -0.017887    -0.305481
   -0.674012     5.149115    -0.054918
   -1.246395     0.277310     4.998849
  La  Ga   H
   4   2  24
Direct
    0.448271     0.294715     0.787229 
    0.397849     0.793265     0.204317 
    0.773984     0.226650     0.391196 
    0.087961     0.822602     0.609761 
    0.204218     0.279191     0.198102 
    0.841560     0.684035     0.014367 
    0.057359     0.371450     0.740215 
    0.503554     0.956481     0.639079 
    0.735712     0.556671     0.581612 
    0.699736     0.817189     0.592819 
    0.554337     0.478292     0.131907 
    0.055354     0.195946     0.778354 
    0.175632     0.053297     0.958785 
    0.520883     0.915177     0.837144 
    0.506713     0.695231     0.625352 
    0.658421     0.020588     0.032601 
    0.354933     0.604039     0.544450 
    0.032727     0.977176     0.204768 
    0.833771     0.456581     0.730704 
    0.389439     0.086865     0.448561 
    0.166148     0.524281     0.935093 
    0.457343     0.671924     0.871523 
    0.818841     0.995066     0.793981 
    0.794375     0.868705     0.264217 
    0.823899     0.143500     0.865637 
    0.861303     0.318198     0.013740 
    0.496171     0.447769     0.422721 
    0.768917     0.609055     0.371130 
    0.065820     0.564334     0.291410 
    0.128360     0.457801     0.551611 
EA308   5.193  5.298  5.276 75.59 103.17 107.53 Sym.group:    1
1.0
    5.188527     0.142172     0.160359
   -1.728622     5.004208    -0.196971
   -1.387093     1.106707     4.968606
  La  Ga   H
   4   2  24
Direct
    0.576019     0.088700     0.082462 
    0.393682     0.534131     0.321930 
    0.078009     0.909711     0.495803 
    0.767315     0.154670     0.629602 
    0.999333     0.515143     0.921292 
    0.543756     0.595946     0.822841 
    0.967707     0.275790     0.286475 
    0.429313     0.905395     0.424542 
    0.290507     0.757031     0.925445 
    0.708111     0.403571     0.293265 
    0.926115     0.992239     0.055662 
    0.175313     0.873102     0.145585 
    0.285590     0.168782     0.218516 
    0.970904     0.537537     0.361858 
    0.771424     0.747948     0.231260 
    0.725229     0.497025     0.119312 
    0.069312     0.500940     0.513435 
    0.665957     0.795599     0.526402 
    0.794017     0.550757     0.597189 
    0.917232     0.816406     0.840487 
    0.173669     0.292528     0.596121 
    0.464300     0.292642     0.695142 
    0.296820     0.346931     0.988456 
    0.002778     0.156379     0.055482 
    0.268025     0.611697     0.634290 
    0.028546     0.734522     0.163997 
    0.152614     0.002966     0.895766 
    0.701659     0.839569     0.962923 
    0.204013     0.164725     0.816032 
    0.420819     0.956696     0.746194 
EA309   5.211  5.144  5.461 90.60 90.55 62.79 Sym.group:    1
1.0
    5.209919     0.090901     0.029565
    2.272924     4.613773    -0.089940
   -0.084809     0.084020     5.459862
  La  Ga   H
   4   2  24
Direct
    0.233648     0.617991     0.675624 
    0.143133     0.514376     0.174997 
    0.716981     0.390187     0.040124 
    0.670742     0.011182     0.649382 
    0.350382     0.928588     0.264835 
    0.805144     0.456490     0.534819 
    0.414640     0.276496     0.910169 
    0.237412     0.196815     0.650409 
    0.315281     0.759497     0.025750 
    0.162514     0.142914     0.002657 
    0.033828     0.034875     0.517302 
    0.283356     0.121846     0.805181 
    0.297315     0.251008     0.459238 
    0.453058     0.848151     0.869666 
    0.543452     0.074393     0.046191 
    0.033864     0.876952     0.388450 
    0.738583     0.142403     0.326512 
    0.908513     0.964155     0.172746 
    0.700744     0.833618     0.024462 
    0.725121     0.752530     0.307405 
    0.018570     0.227707     0.314886 
    0.559580     0.145493     0.259933 
    0.484981     0.518102     0.369956 
    0.387196     0.875576     0.556686 
    0.046131     0.033666     0.868071 
    0.004713     0.406508     0.796653 
    0.969938     0.930392     0.013099 
    0.578407     0.691074     0.763175 
    0.026149     0.092523     0.685650 
    0.852708     0.698790     0.903985 
EA310   5.283  5.426  5.368 98.81 67.27 113.49 Sym.group:    1
1.0
    5.270937     0.268815    -0.225588
   -2.409360     4.859437     0.140984
    2.282583     0.072922     4.857483
  La  Ga   H
   4   2  24
Direct
    0.300438     0.310352     0.898104 
    0.965720     0.614827     0.227848 
    0.342700     0.117636     0.333235 
    0.692352     0.863936     0.961300 
    0.792409     0.121947     0.471410 
    0.438185     0.689793     0.490520 
    0.321468     0.924397     0.956154 
    0.840463     0.858092     0.546932 
    0.145651     0.367801     0.314175 
    0.651251     0.593029     0.632618 
    0.000624     0.990345     0.166839 
    0.618984     0.352471     0.513150 
    0.818616     0.211487     0.163144 
    0.498891     0.038291     0.822440 
    0.983282     0.415034     0.861293 
    0.325347     0.688470     0.834260 
    0.152605     0.950122     0.712553 
    0.992028     0.172515     0.693688 
    0.374191     0.988439     0.646971 
    0.062744     0.786904     0.878578 
    0.684959     0.248961     0.984596 
    0.997797     0.828715     0.596089 
    0.079543     0.648660     0.552160 
    0.729611     0.334838     0.757808 
    0.645850     0.437475     0.049180 
    0.990082     0.472836     0.549934 
    0.516051     0.516864     0.201245 
    0.991230     0.596851     0.841449 
    0.225792     0.387896     0.593758 
    0.740552     0.501968     0.772573 
EA311   5.246  5.224  5.008 81.76 105.07 92.10 Sym.group:    1
1.0
    5.197931    -0.033448    -0.706998
   -0.106915     5.208337     0.385818
   -0.637764     0.339737     4.955114
  La  Ga   H
   4   2  24
Direct
    0.334306     0.277413     0.972147 
    0.320209     0.680924     0.488707 
    0.700233     0.310173     0.508676 
    0.639300     0.735114     0.029880 
    0.997763     0.062940     0.267349 
    0.002012     0.917214     0.753473 
    0.757360     0.696762     0.482327 
    0.739210     0.350436     0.097913 
    0.279334     0.626937     0.089016 
    0.301583     0.364072     0.328058 
    0.323765     0.281230     0.566227 
    0.229956     0.657620     0.885448 
    0.681395     0.396861     0.886096 
    0.730664     0.643349     0.677604 
    0.034034     0.765594     0.109865 
    0.100287     0.319317     0.565624 
    0.032669     0.558391     0.750595 
    0.937188     0.217451     0.913885 
    0.318548     0.896903     0.113713 
    0.390219     0.094272     0.628915 
    0.601131     0.940862     0.377620 
    0.654647     0.111746     0.882032 
    0.330445     0.955523     0.766425 
    0.331183     0.074125     0.374670 
    0.648270     0.928245     0.593626 
    0.660283     0.067048     0.206218 
    0.032025     0.561350     0.123199 
    0.017345     0.390051     0.271931 
    0.911184     0.655485     0.403192 
    0.944787     0.419696     0.889017 
EA312   5.583  5.599  5.577 114.04 113.90 100.64 Sym.group:   82
1.0
    5.583237    -0.039478     0.034994
   -0.982939     3.094657    -4.560948
   -2.274257     2.042044     4.664581
  La  Ga   H
   4   2  24
Direct
    0.286168     0.783000     0.073316 
    0.713683     0.214861     0.930191 
    0.785638     0.712850     0.499058 
    0.215485     0.286234     0.503700 
    0.248122     0.246374     0.001606 
    0.752168     0.751845     0.000905 
    0.325272     0.943072     0.819284 
    0.126198     0.504253     0.183294 
    0.554588     0.171978     0.184251 
    0.993557     0.371548     0.818779 
    0.825918     0.007055     0.381562 
    0.627941     0.444291     0.620958 
    0.056926     0.873382     0.380642 
    0.492143     0.673422     0.619379 
    0.443274     0.835900     0.825069 
    0.010774     0.618204     0.178542 
    0.663652     0.057658     0.179470 
    0.881542     0.486976     0.824827 
    0.941224     0.118086     0.608178 
    0.514290     0.336432     0.396344 
    0.164592     0.987197     0.608141 
    0.380972     0.557592     0.394686 
    0.438881     0.839519     0.503867 
    0.338899     0.935607     0.503229 
    0.661751     0.063180     0.501353 
    0.561947     0.159542     0.499013 
    0.934312     0.435566     0.599018 
    0.839439     0.337978     0.402891 
    0.162164     0.660737     0.600583 
    0.067277     0.564891     0.404863 
EA313   3.842  3.831  9.083 86.28 98.11 90.77 Sym.group:    1
1.0
    3.835510    -0.024723    -0.227929
   -0.064890     3.778460    -0.631295
   -0.745860     2.057274     8.815404
  La  Ga   H
   4   2  24
Direct
    0.452184     0.819003     0.778726 
    0.575306     0.314982     0.121419 
    0.932012     0.333147     0.755304 
    0.089529     0.850517     0.296016 
    0.053163     0.819424     0.994650 
    0.760650     0.326991     0.449225 
    0.330908     0.480619     0.615848 
    0.256460     0.458981     0.455159 
    0.589549     0.036670     0.331088 
    0.631072     0.091038     0.594673 
    0.119732     0.363530     0.240054 
    0.792009     0.778874     0.547172 
    0.117453     0.096715     0.581177 
    0.353926     0.948632     0.499126 
    0.583752     0.621550     0.323783 
    0.617357     0.583052     0.591239 
    0.327236     0.209416     0.615013 
    0.421417     0.761164     0.484356 
    0.125309     0.613111     0.586766 
    0.283912     0.281080     0.409422 
    0.885461     0.869362     0.476689 
    0.928058     0.846168     0.679041 
    0.332207     0.191239     0.915075 
    0.510560     0.799697     0.189459 
    0.058997     0.226742     0.077884 
    0.735946     0.508568     0.932485 
    0.257399     0.467302     0.932491 
    0.498513     0.826413     0.004716 
    0.715162     0.122407     0.931023 
    0.749644     0.803879     0.106415 
EA314   4.906  4.803  6.334 93.67 84.92 118.88 Sym.group:    1
1.0
    4.900516     0.034485     0.228554
   -2.344130     4.188993    -0.159661
    0.266895    -0.074673     6.328239
  La  Ga   H
   4   2  24
Direct
    0.262342     0.671798     0.721793 
    0.708246     0.295671     0.290814 
    0.381466     0.621395     0.255311 
    0.590754     0.347175     0.747313 
    0.902763     0.997701     0.797636 
    0.034022     0.944429     0.189589 
    0.006539     0.344080     0.506305 
    0.784327     0.921101     0.416302 
    0.346995     0.987277     0.492583 
    0.924647     0.735398     0.570858 
    0.358971     0.353829     0.498374 
    0.676235     0.006245     0.589673 
    0.163953     0.980069     0.575951 
    0.183792     0.241908     0.630826 
    0.650723     0.655375     0.505379 
    0.966343     0.137705     0.442867 
    0.044273     0.718619     0.405835 
    0.263154     0.189163     0.370339 
    0.921336     0.659139     0.913795 
    0.207028     0.020231     0.914297 
    0.884198     0.335966     0.954735 
    0.039702     0.256998     0.086285 
    0.656989     0.966132     0.061988 
    0.310624     0.852102     0.027936 
    0.644137     0.153874     0.999336 
    0.734469     0.609436     0.069596 
    0.433690     0.275936     0.062602 
    0.123932     0.636558     0.033632 
    0.281780     0.400526     0.950439 
    0.569382     0.703290     0.939439 
EA315   5.232  5.269  6.020 109.60 95.04 119.47 Sym.group:    1
1.0
   -2.642289    -4.510783    -0.223381
    5.261970    -0.088114     0.267313
   -2.263893     1.675954     5.319862
  La  Ga   H
   4   2  24
Direct
    0.775869     0.656628     0.526900 
    0.372051     0.748501     0.019730 
    0.723610     0.350350     0.991031 
    0.147060     0.265635     0.488826 
    0.456190     0.961826     0.513982 
    0.046971     0.049178     0.005978 
    0.170047     0.685469     0.643834 
    0.815091     0.104163     0.676027 
    0.560070     0.435718     0.727788 
    0.071139     0.859407     0.170756 
    0.464953     0.487267     0.169213 
    0.798918     0.138123     0.207363 
    0.934463     0.582983     0.801332 
    0.326747     0.315692     0.874783 
    0.705517     0.925433     0.839937 
    0.051172     0.538800     0.355278 
    0.705512     0.897568     0.327987 
    0.434906     0.135043     0.342030 
    0.739158     0.767900     0.192898 
    0.423848     0.212484     0.189161 
    0.108299     0.410963     0.186606 
    0.478117     0.745882     0.683555 
    0.858950     0.381358     0.630283 
    0.271366     0.077994     0.691151 
    0.067977     0.791613     0.324984 
    0.402266     0.607468     0.319156 
    0.772308     0.252678     0.379911 
    0.209300     0.907503     0.813956 
    0.026212     0.270748     0.827769 
    0.684007     0.666493     0.924135 
EA316   4.906  5.096  5.219 88.97 87.47 86.28 Sym.group:    1
1.0
    4.886337     0.320633     0.295432
   -0.019491     5.088313     0.285336
   -0.071184    -0.198376     5.214885
  La  Ga   H
   4   2  24
Direct
    0.493659     0.838811     0.159805 
    0.150383     0.482384     0.817370 
    0.833590     0.163507     0.500818 
    0.994315     0.987557     0.994972 
    0.331937     0.355813     0.319070 
    0.640681     0.665791     0.654147 
    0.648968     0.211184     0.152837 
    0.136921     0.646471     0.182314 
    0.222773     0.108318     0.667313 
    0.499638     0.478998     0.018006 
    0.007444     0.523796     0.456725 
    0.487483     0.957147     0.522696 
    0.337923     0.820723     0.796068 
    0.749934     0.337007     0.857135 
    0.856361     0.802196     0.331217 
    0.671204     0.514075     0.343285 
    0.323926     0.658103     0.484081 
    0.486047     0.334723     0.637664 
    0.996368     0.715522     0.512639 
    0.632644     0.987821     0.800878 
    0.784399     0.597620     0.998290 
    0.884681     0.623818     0.153694 
    0.090642     0.836667     0.635855 
    0.633537     0.199056     0.871920 
    0.794452     0.333315     0.132130 
    0.141615     0.896625     0.362459 
    0.353141     0.093258     0.794549 
    0.997858     0.347282     0.184938 
    0.262966     0.026882     0.446138 
    0.357191     0.195481     0.011824 
EA317   4.334  5.231  5.837 89.49 89.65 91.23 Sym.group:    2
1.0
    4.333546    -0.041616     0.019697
   -0.061747     5.230782    -0.010619
    0.009738     0.064272     5.836217
  La  Ga   H
   4   2  24
Direct
    0.493928     0.992561     0.383394 
    0.001743     0.504335     0.615246 
    0.500258     0.997859     0.857184 
    0.995775     0.499318     0.141478 
    0.495209     0.498152     0.909188 
    0.000885     0.998944     0.089409 
    0.169322     0.276599     0.875660 
    0.814719     0.711830     0.875225 
    0.178020     0.714672     0.874273 
    0.807387     0.292529     0.873934 
    0.327154     0.220798     0.123124 
    0.681524     0.785485     0.123397 
    0.318366     0.782060     0.124352 
    0.688903     0.204359     0.124856 
    0.760682     0.696539     0.372488 
    0.181790     0.266682     0.374468 
    0.671429     0.353980     0.373734 
    0.333821     0.624648     0.364272 
    0.732969     0.799170     0.625852 
    0.312384     0.229395     0.624285 
    0.824485     0.142661     0.624610 
    0.161088     0.872545     0.634880 
    0.478164     0.660082     0.628009 
    0.527874     0.335005     0.617598 
    0.887951     0.915282     0.630196 
    0.140440     0.113397     0.639846 
    0.016838     0.837306     0.370486 
    0.967257     0.162034     0.381547 
    0.606961     0.579550     0.368276 
    0.354266     0.382943     0.359104 
EA318   4.958  5.127  5.362 101.70 92.23 91.42 Sym.group:    1
1.0
    4.956230    -0.089963    -0.109320
   -0.045663     5.103007    -0.495618
   -0.101976    -0.575407     5.329992
  La  Ga   H
   4   2  24
Direct
    0.509195     0.506063     0.358573 
    0.477543     0.528568     0.855301 
    0.986306     0.965141     0.194814 
    0.021343     0.032651     0.706600 
    0.005843     0.455429     0.172750 
    0.965322     0.532152     0.679971 
    0.672938     0.215488     0.629752 
    0.373022     0.185100     0.940932 
    0.720602     0.872911     0.898093 
    0.255302     0.716588     0.612555 
    0.274854     0.841779     0.418186 
    0.682191     0.727736     0.139755 
    0.306376     0.193692     0.111658 
    0.801134     0.251543     0.436332 
    0.394689     0.900224     0.804322 
    0.637908     0.817550     0.676508 
    0.399212     0.120775     0.686824 
    0.645405     0.159383     0.777295 
    0.604168     0.099858     0.198585 
    0.363600     0.126366     0.278268 
    0.606336     0.917685     0.347808 
    0.362467     0.807128     0.170365 
    0.796560     0.316229     0.950837 
    0.161763     0.319344     0.475130 
    0.902327     0.690024     0.424838 
    0.113071     0.639485     0.976258 
    0.344751     0.897772     0.966984 
    0.625522     0.903804     0.506878 
    0.366446     0.146843     0.526248 
    0.631821     0.106841     0.046046 
EA319   4.564  5.170  6.052 73.69 86.84 104.82 Sym.group:    1
1.0
    4.555004     0.289496     0.029494
   -1.637934     4.901342     0.165284
    0.191467     1.660764     5.816781
  La  Ga   H
   4   2  24
Direct
    0.732621     0.256861     0.485870 
    0.307081     0.626292     0.424963 
    0.298885     0.971691     0.848673 
    0.768233     0.941915     0.076762 
    0.825520     0.695723     0.667705 
    0.507541     0.393281     0.083238 
    0.703450     0.300110     0.849911 
    0.468948     0.058163     0.286341 
    0.035481     0.301299     0.744191 
    0.995912     0.614443     0.178108 
    0.095387     0.337516     0.235018 
    0.177924     0.241916     0.343013 
    0.117054     0.560413     0.845626 
    0.309894     0.607242     0.779716 
    0.897603     0.652931     0.964461 
    0.244679     0.194929     0.520595 
    0.275632     0.620644     0.099080 
    0.899509     0.007600     0.728777 
    0.193439     0.253665     0.003060 
    0.764916     0.927017     0.403535 
    0.551582     0.705442     0.883109 
    0.192332     0.914192     0.541617 
    0.047219     0.967750     0.342598 
    0.862395     0.331007     0.127283 
    0.513582     0.845833     0.618358 
    0.487194     0.418802     0.700903 
    0.240419     0.360918     0.755723 
    0.861822     0.666765     0.358600 
    0.993368     0.380535     0.986868 
    0.169475     0.969343     0.224205 
EA320   5.097  5.371  5.346 82.74 109.72 108.09 Sym.group:    1
1.0
    5.070002    -0.127995    -0.512490
   -1.520584     5.145019     0.258036
   -1.287218     0.064655     5.188167
  La  Ga   H
   4   2  24
Direct
    0.159297     0.036160     0.323238 
    0.708389     0.374820     0.984576 
    0.320630     0.667651     0.974585 
    0.780471     0.011113     0.613384 
    0.201035     0.531844     0.485117 
    0.687940     0.489782     0.454203 
    0.950888     0.390674     0.729570 
    0.760890     0.028142     0.990860 
    0.498727     0.235228     0.614791 
    0.780917     0.734615     0.129452 
    0.396688     0.060158     0.989401 
    0.424239     0.795694     0.340857 
    0.172120     0.944406     0.707410 
    0.040718     0.665705     0.191588 
    0.243562     0.275239     0.691931 
    0.035642     0.735102     0.577592 
    0.458531     0.033811     0.841618 
    0.721586     0.794514     0.285132 
    0.138674     0.974060     0.948351 
    0.989307     0.814432     0.938148 
    0.291912     0.265982     0.022375 
    0.559179     0.185680     0.280449 
    0.919553     0.283470     0.349372 
    0.569360     0.617232     0.674173 
    0.072670     0.263270     0.964326 
    0.687486     0.015210     0.193377 
    0.391693     0.860860     0.651778 
    0.732589     0.776613     0.947415 
    0.908828     0.678083     0.785099 
    0.315073     0.418956     0.281267 
EA321   5.123  5.110  5.751 90.27 89.70 119.49 Sym.group:    1
1.0
    2.500480     4.471337    -0.008804
   -5.110003    -0.024637    -0.002988
    0.023943     0.032870     5.751080
  La  Ga   H
   4   2  24
Direct
    0.998427     0.999109     0.509506 
    0.000183     0.001561     0.010885 
    0.328208     0.663760     0.996679 
    0.667629     0.333298     0.996631 
    0.341654     0.667688     0.500378 
    0.655279     0.332780     0.499933 
    0.670195     0.670026     0.804211 
    0.334529     0.999075     0.799596 
    0.996613     0.330629     0.790785 
    0.997637     0.651205     0.214400 
    0.344302     0.345840     0.208770 
    0.647713     0.997506     0.208025 
    0.785713     0.196593     0.685020 
    0.801374     0.589470     0.688187 
    0.401795     0.192562     0.696320 
    0.401299     0.203676     0.298155 
    0.791637     0.203171     0.306953 
    0.793861     0.591534     0.302183 
    0.201423     0.793171     0.306837 
    0.194598     0.407930     0.305153 
    0.593149     0.801105     0.297136 
    0.593539     0.787547     0.694439 
    0.199394     0.789449     0.686859 
    0.197509     0.405752     0.689750 
    0.333263     0.334028     0.797068 
    0.666837     0.997814     0.797965 
    0.998721     0.671914     0.795233 
    0.996069     0.344379     0.215354 
    0.652901     0.653519     0.206539 
    0.345535     0.997677     0.212218 
EA322   5.301  3.704  7.308 77.88 78.44 104.27 Sym.group:    1
1.0
    5.298996     0.146463     0.034071
   -1.011497     3.562278    -0.081815
    1.362342     2.139044     6.853865
  La  Ga   H
   4   2  24
Direct
    0.204929     0.622873     0.937729 
    0.728548     0.249090     0.396179 
    0.603816     0.878075     0.114400 
    0.748326     0.603839     0.674957 
    0.140729     0.977851     0.304517 
    0.296567     0.560923     0.486019 
    0.793929     0.454797     0.111321 
    0.929949     0.721471     0.188545 
    0.443412     0.293158     0.260069 
    0.037717     0.027774     0.036586 
    0.018831     0.060522     0.922762 
    0.166868     0.506671     0.238633 
    0.284509     0.097007     0.063586 
    0.951749     0.201171     0.158132 
    0.047388     0.137215     0.493923 
    0.095045     0.975893     0.722752 
    0.581904     0.006994     0.831776 
    0.857165     0.290773     0.883315 
    0.758416     0.487307     0.979481 
    0.176322     0.915243     0.633547 
    0.396010     0.220525     0.866462 
    0.540243     0.437193     0.976743 
    0.845146     0.095633     0.780879 
    0.539169     0.022715     0.695452 
    0.109350     0.423428     0.715177 
    0.902070     0.171554     0.643841 
    0.413443     0.244628     0.593348 
    0.428761     0.810136     0.628371 
    0.862642     0.794089     0.885573 
    0.309844     0.242963     0.777917 
EA323   3.765  6.818  5.171 84.21 94.54 92.71 Sym.group:    1
1.0
    3.748493    -0.099664     0.339543
   -0.182778     6.801670     0.433508
   -0.867516     0.174510     5.094573
  La  Ga   H
   4   2  24
Direct
    0.857800     0.126088     0.118454 
    0.066953     0.923610     0.665112 
    0.404823     0.811743     0.181044 
    0.493484     0.254474     0.620805 
    0.941162     0.520262     0.404261 
    0.071837     0.499327     0.841830 
    0.588027     0.958502     0.823575 
    0.228957     0.694063     0.521813 
    0.169723     0.337707     0.280957 
    0.364042     0.298786     0.212850 
    0.717315     0.391683     0.964350 
    0.706595     0.724169     0.527938 
    0.325598     0.097508     0.961481 
    0.975459     0.202107     0.479813 
    0.875641     0.820733     0.023866 
    0.829821     0.697150     0.881451 
    0.515806     0.525459     0.127620 
    0.595026     0.986565     0.471780 
    0.011871     0.219752     0.758515 
    0.333151     0.087478     0.310654 
    0.390112     0.708838     0.824377 
    0.505419     0.551408     0.613504 
    0.561918     0.524929     0.764253 
    0.348909     0.329901     0.976069 
    0.914068     0.823258     0.312907 
    0.552599     0.765974     0.628613 
    0.652230     0.348840     0.250408 
    0.444510     0.526613     0.387722 
    0.069853     0.588926     0.131548 
    0.618782     0.589142     0.016417 
EA324   5.029  5.397  5.555 77.93 75.50 109.54 Sym.group:    1
1.0
    5.026383     0.115360    -0.097704
   -1.921871     5.042863     0.005180
    1.448529     1.790385     5.055361
  La  Ga   H
   4   2  24
Direct
    0.951333     0.973043     0.268314 
    0.039155     0.026151     0.736968 
    0.706711     0.310347     0.017539 
    0.291001     0.690552     0.979662 
    0.323702     0.619934     0.500828 
    0.681615     0.384389     0.497062 
    0.632882     0.895809     0.088938 
    0.686191     0.670331     0.889488 
    0.871688     0.682826     0.610818 
    0.363006     0.911660     0.598221 
    0.335994     0.327650     0.907955 
    0.965889     0.347313     0.273636 
    0.350131     0.093205     0.929090 
    0.306788     0.327040     0.115578 
    0.130920     0.326036     0.390942 
    0.628218     0.084847     0.399305 
    0.626446     0.652329     0.137139 
    0.029367     0.655008     0.727847 
    0.383916     0.237535     0.383452 
    0.145251     0.367431     0.842423 
    0.609282     0.072939     0.756795 
    0.521108     0.459766     0.768637 
    0.070335     0.650433     0.357217 
    0.330179     0.039769     0.366057 
    0.640356     0.768387     0.632220 
    0.853252     0.645533     0.142940 
    0.371999     0.933248     0.246812 
    0.451415     0.504023     0.225570 
    0.931500     0.354848     0.640874 
    0.663283     0.957968     0.628876 
EA325   5.099  5.503  5.352 111.68 106.40 74.96 Sym.group:    1
1.0
    5.093319     0.129334    -0.194020
    1.286847     5.347558    -0.184852
   -1.284046    -1.554016     4.957363
  La  Ga   H
   4   2  24
Direct
    0.372204     0.707544     0.453016 
    0.823123     0.097701     0.139922 
    0.401878     0.222581     0.500536 
    0.078768     0.364732     0.895080 
    0.874425     0.862893     0.580169 
    0.552050     0.679004     0.980186 
    0.946216     0.725688     0.213446 
    0.084572     0.050957     0.497702 
    0.125450     0.765248     0.999753 
    0.971737     0.739980     0.877811 
    0.230694     0.907530     0.185315 
    0.990008     0.359824     0.493315 
    0.508615     0.359038     0.948574 
    0.674146     0.816466     0.790515 
    0.393968     0.099637     0.089979 
    0.746628     0.182396     0.788668 
    0.458844     0.349508     0.199311 
    0.262831     0.611908     0.761648 
    0.767002     0.548850     0.385956 
    0.677438     0.479945     0.696747 
    0.384926     0.022304     0.797517 
    0.093473     0.569759     0.592971 
    0.803522     0.167384     0.521893 
    0.607236     0.873831     0.301877 
    0.229522     0.062261     0.078098 
    0.477059     0.167920     0.867924 
    0.755987     0.509880     0.197500 
    0.172020     0.936620     0.802076 
    0.080716     0.433033     0.288958 
    0.784121     0.397216     0.524722 
EA326   5.298  6.169  4.860 77.02 113.53 75.38 Sym.group:    1
1.0
    5.282316     0.204859    -0.347304
    1.348640     6.011293     0.314851
   -1.708276     1.274754     4.368010
  La  Ga   H
   4   2  24
Direct
    0.368373     0.158603     0.260119 
    0.844013     0.004735     0.115827 
    0.951250     0.617273     0.948775 
    0.586426     0.532589     0.370708 
    0.325593     0.820444     0.750593 
    0.214136     0.400990     0.628896 
    0.211632     0.653893     0.417940 
    0.978586     0.349462     0.317465 
    0.505791     0.878945     0.099626 
    0.196548     0.806931     0.036769 
    0.900933     0.320469     0.866622 
    0.339937     0.506590     0.931514 
    0.748244     0.810578     0.460689 
    0.135776     0.088445     0.494464 
    0.708743     0.380429     0.841132 
    0.854659     0.194330     0.440615 
    0.573609     0.939875     0.737370 
    0.131137     0.034839     0.908134 
    0.317261     0.844746     0.354363 
    0.567699     0.246763     0.655563 
    0.819070     0.105679     0.570113 
    0.563739     0.560612     0.813380 
    0.833744     0.958250     0.709253 
    0.012103     0.781373     0.585094 
    0.058636     0.179311     0.795716 
    0.869490     0.666178     0.316560 
    0.577084     0.329767     0.049585 
    0.401750     0.116884     0.868446 
    0.790127     0.369881     0.146591 
    0.603172     0.812032     0.515009 
EA327   5.165  5.260  5.680 77.22 86.47 118.82 Sym.group:    2
1.0
    2.604732    -4.458917     0.116674
    2.650885     4.501343     0.612143
    0.820328     0.221257     5.616478
  La  Ga   H
   4   2  24
Direct
    0.007976     0.033109     0.252659 
    0.989932     0.963404     0.750237 
    0.376101     0.741757     0.313003 
    0.621417     0.254742     0.688944 
    0.694296     0.411737     0.154438 
    0.303330     0.584715     0.847134 
    0.717107     0.749807     0.079726 
    0.984521     0.682618     0.540786 
    0.430689     0.130310     0.066408 
    0.332897     0.413832     0.604166 
    0.071453     0.449059     0.140548 
    0.654761     0.907692     0.560018 
    0.280786     0.246743     0.923241 
    0.013160     0.313640     0.461407 
    0.568191     0.866097     0.934961 
    0.665560     0.582776     0.397222 
    0.925645     0.546658     0.861863 
    0.344088     0.090944     0.441604 
    0.932201     0.254480     0.920601 
    0.696358     0.153687     0.368196 
    0.623316     0.573085     0.837295 
    0.923965     0.582295     0.369083 
    0.252005     0.875607     0.981973 
    0.317403     0.312476     0.448821 
    0.064497     0.742314     0.083845 
    0.301863     0.843281     0.632977 
    0.374326     0.423876     0.164210 
    0.073828     0.414666     0.633594 
    0.745824     0.115521     0.017306 
    0.681276     0.684293     0.554261 
EA328   5.348  5.621  5.633 79.58 117.90 117.55 Sym.group:    1
1.0
    2.933738     2.283679    -3.843910
   -1.637064     3.239413     4.292235
    2.716018    -2.498763     4.255303
  La  Ga   H
   4   2  24
Direct
    0.603628     0.829358     0.478125 
    0.305067     0.175380     0.527402 
    0.803010     0.526082     0.178361 
    0.105569     0.477695     0.826672 
    0.207528     0.000565     0.000230 
    0.711265     0.002799     0.004966 
    0.899528     0.229671     0.449505 
    0.208448     0.761587     0.544380 
    0.699591     0.539929     0.760740 
    0.400040     0.460170     0.242157 
    0.211035     0.708246     0.114174 
    0.395403     0.295688     0.894791 
    0.897548     0.894088     0.298159 
    0.719641     0.114344     0.715314 
    0.678717     0.240934     0.451314 
    0.994556     0.764771     0.551725 
    0.496851     0.560391     0.770241 
    0.173308     0.446247     0.233089 
    0.315478     0.893034     0.809190 
    0.604734     0.109840     0.194195 
    0.113920     0.194366     0.110131 
    0.816568     0.807065     0.894149 
    0.690845     0.298022     0.889469 
    0.507743     0.707848     0.111286 
    0.011460     0.109780     0.705362 
    0.186786     0.884886     0.296442 
    0.095073     0.399406     0.465283 
    0.234883     0.576112     0.533829 
    0.732936     0.538436     0.596307 
    0.595626     0.463512     0.402844 
EA329   2.839  2.831 16.134 90.00 90.02 89.99 Sym.group:    1
1.0
    2.830774    -0.048010    -0.212546
    0.051698     2.829887     0.042107
    1.196678    -0.262008    16.087464
  La  Ga   H
   4   2  24
Direct
    0.004379     0.998881     0.841031 
    0.513631     0.488692     0.154587 
    0.488994     0.504321     0.654012 
    0.003436     0.993479     0.340184 
    0.980602     0.002930     0.505655 
    0.521117     0.492943     0.989232 
    0.990015     0.004691     0.625551 
    0.503610     0.493386     0.388181 
    0.508418     0.989023     0.247601 
    0.980281     0.004895     0.715035 
    0.508681     0.491981     0.281687 
    0.481929     0.004753     0.563921 
    0.984873     0.498935     0.747267 
    0.989400     0.497392     0.436840 
    0.502115     0.499537     0.869372 
    0.014570     0.987341     0.106576 
    0.010625     0.491198     0.247079 
    0.513228     0.498724     0.780162 
    0.010669     0.988126     0.213016 
    0.016524     0.497555     0.931042 
    0.508598     0.004097     0.748022 
    0.517636     0.989948     0.057869 
    0.504339     0.995154     0.930938 
    0.022862     0.993996     0.026913 
    0.017110     0.490263     0.058022 
    0.015007     0.992138     0.978257 
    0.989890     0.503554     0.564038 
    0.475702     0.506949     0.467940 
    0.494364     0.002280     0.436707 
    0.486474     0.502904     0.516586 
EA330   3.632  5.253  3.788 69.30 89.35 76.62 Sym.group:    1
1.0
    3.627588     0.187126    -0.004441
    0.950681     5.165953    -0.088056
   -0.026086     1.426353     3.508572
  La  Ga   H
   2   1  12
Direct
    0.246550     0.402693     0.469447 
    0.737103     0.834019     0.754684 
    0.831938     0.200239     0.073573 
    0.332771     0.604362     0.871850 
    0.116993     0.418306     0.961885 
    0.807207     0.227066     0.542173 
    0.265788     0.792326     0.064706 
    0.164056     0.018702     0.853475 
    0.185424     0.996696     0.452704 
    0.431219     0.120596     0.094544 
    0.695529     0.504555     0.193492 
    0.373865     0.805381     0.334493 
    0.652755     0.638542     0.359434 
    0.701083     0.491215     0.659832 
    0.912112     0.821434     0.260094 
EA331   4.997  3.610  3.821 90.22 97.97 103.81 Sym.group:    1
1.0
    4.996199    -0.065659    -0.089823
   -0.814478     3.516291     0.083030
   -0.464681    -0.211976     3.786611
  La  Ga   H
   2   1  12
Direct
    0.095357     0.349675     0.986134 
    0.688354     0.571704     0.423848 
    0.491696     0.996825     0.883932 
    0.838727     0.742055     0.947704 
    0.090438     0.853496     0.726147 
    0.762472     0.090041     0.209318 
    0.048657     0.855568     0.238124 
    0.328112     0.774674     0.358603 
    0.314583     0.223720     0.530327 
    0.073227     0.972269     0.462752 
    0.514652     0.514209     0.892190 
    0.012960     0.341021     0.470868 
    0.377743     0.080760     0.269676 
    0.743665     0.088068     0.644647 
    0.273824     0.620366     0.515131 
EA332   5.045  4.090  3.694 89.23 69.42 111.59 Sym.group:    1
1.0
    3.244342     3.853984     0.272265
   -2.119460     0.061409    -3.497700
   -1.736207     3.087599     1.048202
  La  Ga   H
   2   1  12
Direct
    0.017196     0.338660     0.475943 
    0.267491     0.005006     0.864074 
    0.651359     0.664611     0.954019 
    0.907173     0.509486     0.017504 
    0.366280     0.844523     0.297670 
    0.822688     0.084481     0.069969 
    0.649148     0.172511     0.257247 
    0.474597     0.489753     0.488779 
    0.264535     0.505949     0.883866 
    0.645510     0.445322     0.550433 
    0.453357     0.723261     0.451953 
    0.844733     0.800429     0.326938 
    0.464423     0.221297     0.255117 
    0.641684     0.900621     0.568029 
    0.028655     0.842709     0.493910 
EA333   3.700  4.345  4.536 108.22 75.02 105.49 Sym.group:    1
1.0
    3.696311    -0.166862    -0.053278
   -0.966899     4.228544     0.256068
    1.168159    -1.441100     4.139841
  La  Ga   H
   2   1  12
Direct
    0.599942     0.645449     0.666871 
    0.024137     0.238384     0.027272 
    0.332882     0.916486     0.320290 
    0.912790     0.672515     0.266679 
    0.462292     0.323829     0.277262 
    0.030649     0.707953     0.919713 
    0.121099     0.488126     0.479726 
    0.460723     0.164296     0.645775 
    0.770938     0.780332     0.097645 
    0.872058     0.048460     0.453830 
    0.147111     0.829670     0.687784 
    0.465431     0.043938     0.976145 
    0.008031     0.314854     0.563026 
    0.550804     0.508117     0.138296 
    0.602677     0.314821     0.880762 
EA334   5.059  4.806  2.734 85.21 89.06 92.58 Sym.group:    1
1.0
    5.058009    -0.076079     0.038895
   -0.146221     4.798138     0.225824
    0.025291     0.100861     2.731820
  La  Ga   H
   2   1  12
Direct
    0.513476     0.993029     0.111937 
    0.995079     0.483486     0.818044 
    0.024337     0.987029     0.472520 
    0.660367     0.701184     0.662810 
    0.608626     0.325584     0.558218 
    0.339792     0.721757     0.692935 
    0.384136     0.363762     0.734086 
    0.815757     0.737962     0.242751 
    0.774545     0.169320     0.554760 
    0.182228     0.751009     0.191971 
    0.238571     0.247857     0.413940 
    0.630856     0.454870     0.233593 
    0.335259     0.578561     0.341970 
    0.605724     0.577077     0.922009 
    0.360719     0.396680     0.038880 
EA335   2.858  6.944  3.623 79.43 67.01 89.95 Sym.group:    8
1.0
    2.845148    -0.006706    -0.266318
    0.085532     6.910384     0.680602
    1.719121     0.334352     3.172149
  La  Ga   H
   2   1  12
Direct
    0.153837     0.327186     0.584508 
    0.048939     0.711173     0.797390 
    0.802275     0.009004     0.291782 
    0.328703     0.617280     0.241757 
    0.440704     0.314767     0.013264 
    0.486129     0.476045     0.926251 
    0.535800     0.914549     0.820822 
    0.567977     0.104800     0.760367 
    0.388541     0.863686     0.119625 
    0.451926     0.156647     0.988474 
    0.715269     0.570670     0.460430 
    0.763771     0.755084     0.362010 
    0.845514     0.252495     0.199188 
    0.064825     0.015613     0.765290 
    0.868090     0.436305     0.152675 
EA336   3.738  3.475  5.394 89.00 109.02 90.54 Sym.group:    1
1.0
    3.675383    -0.002718     0.681224
   -0.034736     3.474667     0.021000
   -2.657605     0.039071     4.694261
  La  Ga   H
   2   1  12
Direct
    0.539113     0.413526     0.035166 
    0.057328     0.492116     0.527520 
    0.004363     0.914689     0.953432 
    0.217576     0.011946     0.365192 
    0.561049     0.181295     0.610250 
    0.569105     0.750558     0.547171 
    0.489771     0.249201     0.410425 
    0.957066     0.391398     0.871438 
    0.475006     0.728548     0.363374 
    0.115014     0.463753     0.177441 
    0.630159     0.550179     0.692278 
    0.860180     0.985504     0.614864 
    0.625708     0.914434     0.249502 
    0.966947     0.998401     0.301464 
    0.429204     0.981014     0.754108 
EA337   4.676  3.802  3.801 92.14 99.69 82.22 Sym.group:    2
1.0
    4.652233    -0.093191     0.466223
    0.598066     3.754562    -0.051453
   -1.008589     0.067042     3.663692
  La  Ga   H
   2   1  12
Direct
    0.694759     0.720292     0.906762 
    0.310653     0.284386     0.092533 
    0.002666     0.002401     0.499638 
    0.645147     0.224703     0.770524 
    0.360152     0.779987     0.228639 
    0.648696     0.333114     0.525736 
    0.356673     0.671626     0.473546 
    0.874264     0.199610     0.102306 
    0.131118     0.805075     0.896904 
    0.316142     0.507764     0.608720 
    0.689217     0.496994     0.390564 
    0.998512     0.406992     0.669538 
    0.006929     0.597778     0.329737 
    0.360715     0.059227     0.600403 
    0.644659     0.945388     0.398879 
EA338   2.936  3.091  8.168 85.98 95.46 116.39 Sym.group:    1
1.0
    2.932784     0.051510    -0.130958
   -1.418886     2.743940     0.106168
   -0.416460     0.114786     8.156468
  La  Ga   H
   2   1  12
Direct
    0.282215     0.621106     0.832102 
    0.372475     0.630524     0.160742 
    0.458538     0.659232     0.482612 
    0.811302     0.590829     0.993924 
    0.290532     0.109477     0.993619 
    0.825201     0.122942     0.991328 
    0.797509     0.723244     0.659234 
    0.451138     0.203541     0.679992 
    0.756891     0.176486     0.660985 
    0.091372     0.990669     0.296440 
    0.704781     0.249476     0.294171 
    0.871499     0.579620     0.346197 
    0.066105     0.286648     0.626153 
    0.006819     0.123072     0.439226 
    0.169420     0.944377     0.546551 
EA339   4.223  4.239  5.016 65.26 114.69 89.53 Sym.group:    1
1.0
    4.223424    -0.000494    -0.001036
    0.036073     2.363689     3.519037
   -2.094592    -2.170131     4.007972
  La  Ga   H
   2   1  12
Direct
    0.346350     0.653547     0.691011 
    0.651024     0.349107     0.300607 
    0.002048     0.001780     0.994331 
    0.494161     0.989835     0.996605 
    0.994138     0.501256     0.003249 
    0.146216     0.651531     0.995315 
    0.852222     0.346283     0.997082 
    0.654110     0.852728     0.994897 
    0.349267     0.152698     0.996328 
    0.000009     0.500309     0.495331 
    0.498165     0.002946     0.497495 
    0.996262     0.998407     0.496897 
    0.498168     0.498812     0.496839 
    0.253068     0.247316     0.498124 
    0.746378     0.754332     0.497288 
EA340   4.098  4.064  4.097 80.94 80.96 82.10 Sym.group:    1
1.0
    4.096363     0.093286     0.092937
    0.463827     4.035385     0.139354
    0.542522     0.448090     4.035884
  La  Ga   H
   2   1  12
Direct
    0.828949     0.825177     0.817295 
    0.186113     0.163903     0.182637 
    0.499138     0.497618     0.506142 
    0.217471     0.115328     0.690265 
    0.689868     0.213689     0.107292 
    0.082614     0.663445     0.227168 
    0.328953     0.909702     0.762771 
    0.779657     0.323067     0.914366 
    0.885646     0.777896     0.311296 
    0.104617     0.451664     0.585951 
    0.588841     0.111387     0.445762 
    0.436453     0.608075     0.115783 
    0.396590     0.564129     0.893784 
    0.887551     0.402319     0.558366 
    0.558517     0.891746     0.415197 
EA341   4.228  3.857  4.912 107.96 100.52 112.62 Sym.group:    1
1.0
   -1.777458    -2.000009    -3.273404
    3.844544    -0.307409     0.016192
   -1.748301    -2.666124     3.737225
  La  Ga   H
   2   1  12
Direct
    0.271829     0.530266     0.758713 
    0.748368     0.540791     0.329091 
    0.009652     0.027455     0.014571 
    0.246650     0.518853     0.321599 
    0.384561     0.802821     0.243003 
    0.738291     0.454968     0.736840 
    0.706591     0.157185     0.593612 
    0.060595     0.657889     0.084182 
    0.638303     0.917531     0.620592 
    0.676037     0.157601     0.923152 
    0.314633     0.105063     0.424633 
    0.300669     0.980902     0.563439 
    0.915331     0.110011     0.354458 
    0.407126     0.129491     0.864603 
    0.574107     0.920938     0.207717 
EA342   3.485  4.878  4.573 111.40 103.94 103.86 Sym.group:    1
1.0
    3.481143    -0.081944     0.143207
   -1.060154     4.760648     0.063708
   -1.310901    -2.053113     3.870665
  La  Ga   H
   2   1  12
Direct
    0.077808     0.150367     0.618890 
    0.772685     0.503521     0.307362 
    0.513680     0.827317     0.920973 
    0.510853     0.155580     0.403715 
    0.732469     0.384352     0.823583 
    0.362794     0.513988     0.550529 
    0.238892     0.546058     0.053111 
    0.441681     0.830580     0.487701 
    0.008947     0.834077     0.145400 
    0.674414     0.158171     0.857109 
    0.260099     0.842615     0.267200 
    0.847866     0.536532     0.787732 
    0.937534     0.819856     0.788471 
    0.111770     0.213807     0.150618 
    0.258032     0.096868     0.061066 
EA343   4.428  4.559  3.714 91.89 89.93 118.51 Sym.group:    1
1.0
    4.427619     0.032688     0.019097
   -2.205210     3.989064    -0.075350
   -0.010935    -0.075936     3.713460
  La  Ga   H
   2   1  12
Direct
    0.666098     0.323710     0.953745 
    0.996685     0.978827     0.305739 
    0.333365     0.665786     0.748683 
    0.499812     0.968918     0.420659 
    0.032824     0.524604     0.399587 
    0.459200     0.494689     0.389310 
    0.762824     0.548418     0.499842 
    0.457700     0.229528     0.480926 
    0.797101     0.241250     0.483735 
    0.390761     0.526597     0.178655 
    0.458469     0.865680     0.182050 
    0.134955     0.600387     0.182154 
    0.102994     0.230404     0.806024 
    0.769448     0.863343     0.794141 
    0.153550     0.920613     0.795397 
EA344   3.828  5.294  5.315 119.60 70.14 69.55 Sym.group:    1
1.0
    3.826619    -0.043208    -0.098139
    1.889124     4.904900    -0.629305
    1.872854    -3.051049     3.929071
  La  Ga   H
   2   1  12
Direct
    0.000799     0.454379     0.539791 
    0.006427     0.821847     0.160985 
    0.000156     0.191580     0.798435 
    0.985718     0.184735     0.146124 
    0.950231     0.881302     0.840054 
    0.338658     0.862870     0.826604 
    0.657156     0.179958     0.148436 
    0.575205     0.747035     0.460259 
    0.430178     0.542925     0.243462 
    0.788072     0.957481     0.656986 
    0.206150     0.326794     0.053758 
    0.785242     0.543582     0.256382 
    0.204318     0.732766     0.456937 
    0.425472     0.319963     0.036453 
    0.563547     0.980685     0.667044 
EA345   2.807  3.007  8.595 85.47 91.90 116.92 Sym.group:    1
1.0
   -1.377296    -2.446167    -0.014532
    3.003356    -0.129317     0.069338
    0.481544     0.004616     8.581889
  La  Ga   H
   2   1  12
Direct
    0.743118     0.101986     0.901041 
    0.056960     0.765289     0.654865 
    0.183099     0.262300     0.283316 
    0.532639     0.934302     0.335437 
    0.357183     0.411988     0.522598 
    0.756679     0.159410     0.525136 
    0.634631     0.924188     0.462728 
    0.705077     0.498599     0.422340 
    0.034370     0.648812     0.412109 
    0.907724     0.467733     0.135661 
    0.552914     0.947934     0.140493 
    0.763104     0.690127     0.191068 
    0.046520     0.665639     0.032182 
    0.320506     0.070861     0.103544 
    0.416391     0.442628     0.020004 
EA346   4.923  5.143  3.169 105.44 75.59 67.79 Sym.group:    1
1.0
    2.329569     3.727044     2.216940
   -2.479225     4.467557    -0.588531
   -0.197054    -0.673557     3.089973
  La  Ga   H
   2   1  12
Direct
    0.674456     0.670463     0.851296 
    0.316762     0.327968     0.135914 
    0.009140     0.994551     0.550070 
    0.607403     0.951638     0.497576 
    0.367862     0.707610     0.439644 
    0.880210     0.355889     0.151866 
    0.176005     0.994670     0.018943 
    0.683056     0.389426     0.248728 
    0.923639     0.726150     0.264496 
    0.392837     0.041441     0.482953 
    0.671033     0.258360     0.546022 
    0.111052     0.658762     0.851425 
    0.781284     0.017597     0.051936 
    0.325194     0.582597     0.740105 
    0.069254     0.299733     0.722716 
EA347   4.147  4.401  4.624 94.97 66.33 63.66 Sym.group:    1
1.0
    0.163341     4.143616    -0.009745
   -2.143274     2.030947    -3.263238
   -2.467635     1.963089     3.382636
  La  Ga   H
   2   1  12
Direct
    0.494749     0.255863     0.694633 
    0.992059     0.999689     0.999493 
    0.534694     0.709307     0.269628 
    0.383296     0.185755     0.310145 
    0.599319     0.686389     0.643861 
    0.523632     0.915906     0.975616 
    0.391293     0.378370     0.313638 
    0.098756     0.096798     0.536026 
    0.226718     0.607510     0.173788 
    0.868772     0.408136     0.803333 
    0.897880     0.761824     0.357031 
    0.054670     0.692579     0.586627 
    0.913085     0.626019     0.723705 
    0.068760     0.373264     0.206480 
    0.941052     0.351823     0.404116 
EA348   4.216  4.126  4.203 73.61 72.31 92.67 Sym.group:    1
1.0
    4.197655    -0.086432    -0.386066
   -0.142888     4.106478    -0.373967
    1.640184     1.570673     3.536202
  La  Ga   H
   2   1  12
Direct
    0.767327     0.239717     0.492265 
    0.241241     0.766157     0.501556 
    0.495724     0.494721     0.001624 
    0.088726     0.071492     0.121830 
    0.922847     0.384859     0.908701 
    0.389595     0.920385     0.910121 
    0.689457     0.690146     0.195201 
    0.904264     0.918309     0.877427 
    0.083887     0.618484     0.084809 
    0.616805     0.083860     0.084562 
    0.313865     0.309739     0.793598 
    0.727646     0.722216     0.573006 
    0.276917     0.279365     0.440357 
    0.058458     0.088459     0.809900 
    0.928861     0.895870     0.202782 
EA349   3.715  3.701  5.379 70.32 70.31 89.52 Sym.group:    1
1.0
    3.714899    -0.006242    -0.029958
    0.036746     3.700313    -0.067203
    1.853611     1.878976     4.687402
  La  Ga   H
   2   1  12
Direct
    0.380609     0.335252     0.264677 
    0.677662     0.643124     0.722851 
    0.013005     0.975967     0.997565 
    0.339062     0.782099     0.379287 
    0.100222     0.792280     0.341005 
    0.845519     0.093759     0.339494 
    0.844712     0.515405     0.344858 
    0.543780     0.182966     0.628726 
    0.908481     0.177625     0.647124 
    0.208784     0.884012     0.657419 
    0.201125     0.552117     0.663965 
    0.502163     0.981791     0.998550 
    0.024963     0.471517     0.998367 
    0.310100     0.336857     0.648711 
    0.607266     0.787390     0.342389 
EA350   4.526  3.635  4.528 77.60 66.14 76.25 Sym.group:    1
1.0
    4.525840    -0.024742    -0.030337
    0.882388     3.524892    -0.086706
    1.862501     0.636535     4.078032
  La  Ga   H
   2   1  12
Direct
    0.760173     0.470130     0.876891 
    0.111433     0.197535     0.259716 
    0.478175     0.139889     0.589013 
    0.185561     0.620620     0.501385 
    0.946853     0.935621     0.716022 
    0.648269     0.935834     0.146730 
    0.440353     0.781678     0.433958 
    0.863078     0.752323     0.422125 
    0.309714     0.662579     0.192267 
    0.644082     0.537598     0.407807 
    0.110893     0.006869     0.792806 
    0.289925     0.549104     0.806365 
    0.882434     0.830592     0.125539 
    0.549380     0.001718     0.945137 
    0.258431     0.716474     0.992781 
EA351   3.699  4.895  3.811 78.72 84.89 77.26 Sym.group:    1
1.0
    3.685282     0.312821    -0.026717
    0.673091     4.846875     0.123682
    0.315562     0.613304     3.747566
  La  Ga   H
   2   1  12
Direct
    0.496645     0.341866     0.486587 
    0.775451     0.777548     0.879020 
    0.088832     0.192099     0.074395 
    0.041504     0.158388     0.523906 
    0.489907     0.960116     0.298737 
    0.276357     0.716795     0.126119 
    0.637406     0.186183     0.001193 
    0.087920     0.728142     0.310126 
    0.240625     0.970958     0.795002 
    0.957746     0.405891     0.680699 
    0.865235     0.930959     0.329219 
    0.301513     0.706992     0.660630 
    0.413825     0.805296     0.449799 
    0.333057     0.490522     0.955925 
    0.928297     0.556486     0.394527 
EA352   4.565  4.681  3.605 79.98 86.72 118.51 Sym.group:    1
1.0
    4.563300     0.072206     0.109438
   -2.309290     4.052717     0.396686
    0.113753     0.439625     3.576176
  La  Ga   H
   2   1  12
Direct
    0.344131     0.200782     0.866788 
    0.661141     0.840284     0.114001 
    0.992444     0.511436     0.008817 
    0.943073     0.922314     0.590286 
    0.060932     0.098679     0.414139 
    0.812988     0.595243     0.586995 
    0.722303     0.131828     0.557744 
    0.285456     0.898400     0.423862 
    0.214600     0.399863     0.355134 
    0.348468     0.713056     0.697013 
    0.572027     0.686132     0.652298 
    0.586663     0.384528     0.310314 
    0.481139     0.094447     0.390369 
    0.933515     0.285324     0.665697 
    0.025801     0.703365     0.363411 
EA353   3.823  3.812  5.146 109.82 70.38 86.98 Sym.group:    1
1.0
    3.822303    -0.019773     0.038720
    0.220980     3.804430    -0.071070
    1.673215    -1.760307     4.536408
  La  Ga   H
   2   1  12
Direct
    0.531146     0.405514     0.850855 
    0.910827     0.001156     0.065412 
    0.237865     0.964200     0.465351 
    0.372409     0.396243     0.279838 
    0.883228     0.394789     0.462119 
    0.145589     0.484782     0.270934 
    0.966111     0.638576     0.615436 
    0.058345     0.341596     0.798419 
    0.656651     0.612742     0.251396 
    0.937297     0.560882     0.189514 
    0.782539     0.933381     0.471537 
    0.486942     0.850967     0.729920 
    0.490938     0.345513     0.459965 
    0.386566     0.995691     0.116191 
    0.212933     0.604716     0.632623 
EA354   5.519  3.323  3.750 94.53 103.76 86.79 Sym.group:    1
1.0
    5.514410     0.162492    -0.164082
    0.090814     3.321120     0.086397
   -0.773244    -0.370175     3.650325
  La  Ga   H
   2   1  12
Direct
    0.490012     0.024001     0.894681 
    0.102968     0.422921     0.158902 
    0.884702     0.933378     0.570525 
    0.723971     0.491507     0.806829 
    0.169208     0.956906     0.509307 
    0.475801     0.315553     0.416438 
    0.599039     0.456716     0.596026 
    0.258687     0.534280     0.712046 
    0.329591     0.896471     0.342152 
    0.872556     0.928349     0.016388 
    0.958878     0.444374     0.610087 
    0.719129     0.538218     0.171690 
    0.591371     0.847088     0.422967 
    0.443814     0.560266     0.158102 
    0.758050     0.307086     0.279370 
EA355   5.088  5.312  2.862 74.60 90.06 61.41 Sym.group:   71
1.0
    5.087637     0.030458     0.023670
    2.511607     4.641175     0.605000
   -0.019167     0.512883     2.815303
  La  Ga   H
   2   1  12
Direct
    0.017932     0.963239     0.250382 
    0.316050     0.366600     0.548017 
    0.666915     0.665124     0.893177 
    0.019590     0.665085     0.898858 
    0.309879     0.986898     0.737515 
    0.763274     0.294020     0.587014 
    0.632031     0.343162     0.062722 
    0.849403     0.665512     0.394372 
    0.392940     0.035298     0.211356 
    0.023526     0.343261     0.060994 
    0.570970     0.035285     0.211819 
    0.484212     0.665009     0.394904 
    0.314460     0.664636     0.899404 
    0.941360     0.294036     0.586533 
    0.702186     0.987197     0.737057 
EA356   5.259  3.785  3.597 89.87 109.87 100.93 Sym.group:    1
1.0
    4.107060    -0.082978    -3.283256
   -0.823881     3.694528     0.025996
    1.155649     0.242012     3.397204
  La  Ga   H
   2   1  12
Direct
    0.515347     0.994687     0.856963 
    0.076734     0.413538     0.134566 
    0.877929     0.846894     0.536497 
    0.706450     0.542330     0.771391 
    0.152781     0.171886     0.673704 
    0.472267     0.263457     0.334542 
    0.459155     0.471178     0.570708 
    0.359202     0.451877     0.777782 
    0.249316     0.960432     0.224557 
    0.928257     0.882470     0.063326 
    0.140146     0.644727     0.665506 
    0.704609     0.542589     0.123322 
    0.492927     0.745301     0.347383 
    0.469384     0.463510     0.111098 
    0.763134     0.250021     0.479533 
EA357   3.689  3.742  4.967 90.57 74.76 90.18 Sym.group:    1
1.0
    3.682600     0.051090     0.212649
   -0.062551     3.740937    -0.020183
    1.027449    -0.006307     4.860061
  La  Ga   H
   2   1  12
Direct
    0.060608     0.917641     0.116114 
    0.829020     0.417444     0.777207 
    0.454963     0.423747     0.371876 
    0.259440     0.415838     0.009658 
    0.555171     0.127073     0.121687 
    0.900675     0.420834     0.326538 
    0.193443     0.930264     0.684704 
    0.587203     0.923073     0.447135 
    0.347205     0.670596     0.723762 
    0.733226     0.914563     0.549696 
    0.337941     0.146205     0.721127 
    0.602260     0.916002     0.838118 
    0.109734     0.119722     0.463469 
    0.552869     0.711798     0.123007 
    0.105864     0.730386     0.469818 
EA358   4.667  4.279  3.759 65.89 102.54 105.74 Sym.group:    2
1.0
    4.620236     0.620248    -0.217455
   -1.684071     3.921229     0.317712
   -0.799227     1.047096     3.520339
  La  Ga   H
   2   1  12
Direct
    0.063858     0.331511     0.214374 
    0.480732     0.895443     0.788469 
    0.772068     0.613102     0.501450 
    0.618027     0.394120     0.905401 
    0.136754     0.564430     0.612599 
    0.317745     0.334131     0.775105 
    0.655938     0.035191     0.275876 
    0.888428     0.191640     0.726859 
    0.555229     0.366548     0.264260 
    0.226248     0.891808     0.228552 
    0.926754     0.834466     0.098177 
    0.407906     0.662258     0.390089 
    0.393718     0.078903     0.191669 
    0.989160     0.859990     0.738056 
    0.150066     0.147224     0.811255 
EA359   3.724  3.725  5.324 69.86 110.06 89.48 Sym.group:    1
1.0
    3.724433     0.013178    -0.007695
    0.020395     3.725136     0.014625
   -1.823021     1.824617     4.657588
  La  Ga   H
   2   1  12
Direct
    0.815232     0.188770     0.625485 
    0.183109     0.819193     0.368643 
    0.490280     0.501786     0.997089 
    0.289412     0.371764     0.259682 
    0.702793     0.634221     0.737597 
    0.029856     0.630725     0.739601 
    0.958859     0.378300     0.251502 
    0.372496     0.968256     0.739806 
    0.628288     0.709378     0.257176 
    0.624333     0.038099     0.254141 
    0.368747     0.296709     0.737153 
    0.985871     0.249474     0.997231 
    0.988076     0.758465     0.996938 
    0.753886     0.998708     0.997104 
    0.245576     0.999301     0.997034 
EA360   4.422  5.284  6.314 82.45 108.11 110.96 Sym.group:    1
1.0
    4.421458    -0.063787     0.069748
   -1.817629     4.960716    -0.088003
   -2.053302     0.237713     5.965885
  La  Ga   H
   4   2  24
Direct
    0.070335     0.956394     0.102960 
    0.354424     0.121767     0.554456 
    0.768346     0.787782     0.636176 
    0.136820     0.451927     0.747131 
    0.457800     0.587967     0.183684 
    0.665382     0.308131     0.021965 
    0.037179     0.324319     0.034670 
    0.449581     0.855900     0.349220 
    0.954291     0.182726     0.285782 
    0.257619     0.689086     0.471374 
    0.551374     0.233720     0.276043 
    0.071565     0.586771     0.200104 
    0.851174     0.010295     0.336110 
    0.204112     0.308930     0.272374 
    0.826673     0.751126     0.329734 
    0.572041     0.066518     0.323653 
    0.702285     0.457136     0.471841 
    0.341076     0.511408     0.474517 
    0.280564     0.857542     0.840282 
    0.637390     0.418439     0.764402 
    0.956723     0.480690     0.301976 
    0.484323     0.850164     0.831881 
    0.260673     0.094206     0.846389 
    0.620312     0.679051     0.929550 
    0.557588     0.948330     0.086371 
    0.018496     0.638185     0.940893 
    0.740951     0.083233     0.823350 
    0.828360     0.168801     0.520562 
    0.938028     0.354056     0.415922 
    0.057940     0.712361     0.458360 
EA361   5.197  5.209  5.601 75.23 90.31 116.53 Sym.group:    1
1.0
    5.196476     0.028818     0.082786
   -2.354791     4.643195     0.157294
   -0.124242     1.354327     5.433273
  La  Ga   H
   4   2  24
Direct
    0.665898     0.920193     0.160367 
    0.279716     0.323340     0.331653 
    0.941689     0.583782     0.754347 
    0.622951     0.898112     0.680770 
    0.086936     0.748787     0.224454 
    0.310806     0.227600     0.840444 
    0.921088     0.372901     0.146353 
    0.377872     0.083784     0.153275 
    0.603027     0.178270     0.358864 
    0.679619     0.319253     0.096314 
    0.715009     0.520144     0.205639 
    0.308596     0.679213     0.459844 
    0.299863     0.927537     0.475238 
    0.305118     0.527384     0.950716 
    0.945331     0.352699     0.507200 
    0.951655     0.892551     0.415401 
    0.718060     0.527167     0.371360 
    0.842732     0.229039     0.355655 
    0.067745     0.232246     0.041475 
    0.289938     0.994534     0.602552 
    0.617139     0.590633     0.511208 
    0.285017     0.886438     0.881313 
    0.596173     0.541261     0.990322 
    0.919830     0.179332     0.834063 
    0.940760     0.856401     0.960331 
    0.611333     0.187003     0.865231 
    0.250543     0.634107     0.014946 
    0.269655     0.493566     0.634678 
    0.055758     0.036112     0.652931 
    0.586517     0.274182     0.565633 
EA362   5.305  5.406  5.479 74.35 91.22 61.86 Sym.group:    1
1.0
    2.596429     4.626509     0.004862
   -2.900948     4.551792    -0.301390
   -1.860766     0.905405     5.073597
  La  Ga   H
   4   2  24
Direct
    0.459006     0.346412     0.506464 
    0.306884     0.328541     0.980730 
    0.118892     0.963348     0.845276 
    0.877133     0.787234     0.294747 
    0.282147     0.918440     0.385915 
    0.709702     0.509854     0.024860 
    0.098230     0.355003     0.286612 
    0.536669     0.968275     0.815634 
    0.852912     0.310642     0.535393 
    0.776936     0.782601     0.673138 
    0.775868     0.369833     0.679448 
    0.079056     0.303154     0.489132 
    0.491105     0.855155     0.098294 
    0.728647     0.483730     0.327806 
    0.134423     0.677982     0.642097 
    0.029247     0.160013     0.133153 
    0.425503     0.958862     0.647915 
    0.493243     0.056875     0.337974 
    0.470412     0.610267     0.765067 
    0.311737     0.646511     0.172862 
    0.070604     0.395938     0.635847 
    0.684900     0.999311     0.862219 
    0.717033     0.683301     0.628506 
    0.723159     0.196622     0.933069 
    0.611487     0.638686     0.474726 
    0.929796     0.400999     0.811885 
    0.918139     0.688458     0.957774 
    0.672977     0.226114     0.227187 
    0.838239     0.954728     0.603380 
    0.925594     0.085378     0.452519 
EA363   5.122  5.166  5.325 81.61 105.52 104.80 Sym.group:    1
1.0
    5.121410    -0.054040    -0.072242
   -1.265468     5.007264     0.117510
   -1.349023     0.339799     5.139632
  La  Ga   H
   4   2  24
Direct
    0.982255     0.592224     0.453990 
    0.964531     0.033082     0.713257 
    0.430738     0.335397     0.471071 
    0.483340     0.959184     0.085846 
    0.900134     0.430249     0.968702 
    0.362708     0.451457     0.917127 
    0.069329     0.794436     0.083625 
    0.394848     0.664489     0.631166 
    0.882017     0.078106     0.054448 
    0.201584     0.192718     0.095037 
    0.226493     0.584948     0.188469 
    0.081726     0.017403     0.364023 
    0.269938     0.942401     0.380923 
    0.316068     0.941962     0.675959 
    0.673048     0.353432     0.164694 
    0.558854     0.002663     0.486120 
    0.588708     0.790002     0.803418 
    0.063291     0.954338     0.115761 
    0.735809     0.609140     0.713103 
    0.005327     0.243026     0.323645 
    0.762589     0.700920     0.111199 
    0.733914     0.793851     0.945521 
    0.868045     0.935837     0.325897 
    0.632298     0.746742     0.434038 
    0.657840     0.192219     0.792136 
    0.758318     0.201692     0.381701 
    0.521130     0.984221     0.668395 
    0.414124     0.733072     0.457493 
    0.572764     0.601606     0.184472 
    0.163951     0.704097     0.837111 
EA364   5.289  5.268  5.142 80.59 80.67 84.37 Sym.group:    1
1.0
    5.269865     0.231914     0.379678
    0.256804     5.243372     0.437005
    0.451632     0.396895     5.106712
  La  Ga   H
   4   2  24
Direct
    0.763650     0.763399     0.732628 
    0.744763     0.263335     0.247163 
    0.261226     0.746089     0.243874 
    0.241276     0.242753     0.751151 
    0.949045     0.952113     0.000711 
    0.534507     0.540352     0.538550 
    0.599263     0.870257     0.357233 
    0.606917     0.122848     0.631488 
    0.349426     0.872026     0.605967 
    0.351508     0.108964     0.348495 
    0.860495     0.346775     0.629495 
    0.874701     0.591481     0.366704 
    0.115369     0.337642     0.339787 
    0.115712     0.603321     0.619875 
    0.334611     0.601894     0.870444 
    0.380821     0.379329     0.088695 
    0.631561     0.632307     0.124610 
    0.581568     0.338680     0.890113 
    0.906339     0.159722     0.614851 
    0.883241     0.885696     0.352160 
    0.105136     0.120613     0.413365 
    0.163755     0.892770     0.631380 
    0.153913     0.626631     0.891461 
    0.149343     0.389771     0.153521 
    0.905986     0.624235     0.138989 
    0.878196     0.391329     0.857635 
    0.617835     0.919222     0.129160 
    0.629210     0.162217     0.878037 
    0.400338     0.887540     0.867295 
    0.381221     0.155557     0.167791 
EA365   5.259  5.464  5.263 89.90 60.39 89.97 Sym.group:    4
1.0
    2.908347     0.033311    -4.381125
   -0.026881     5.464301     0.020381
    5.250005     0.034014     0.364431
  La  Ga   H
   4   2  24
Direct
    0.203530     0.529999     0.146718 
    0.796781     0.029763     0.852970 
    0.977516     0.533727     0.730156 
    0.023137     0.033294     0.270295 
    0.405003     0.224644     0.433433 
    0.594809     0.724561     0.566858 
    0.587735     0.070593     0.597183 
    0.412094     0.570988     0.402469 
    0.234509     0.949141     0.514391 
    0.766284     0.450323     0.486257 
    0.770877     0.551207     0.194316 
    0.228117     0.054318     0.807690 
    0.372533     0.403979     0.706931 
    0.628366     0.903071     0.292243 
    0.405679     0.187620     0.967198 
    0.594637     0.687651     0.032029 
    0.422231     0.996669     0.182354 
    0.578397     0.496233     0.818390 
    0.412427     0.862955     0.947170 
    0.587799     0.362598     0.052928 
    0.436319     0.261920     0.813466 
    0.565101     0.760431     0.185977 
    0.790127     0.299636     0.550532 
    0.211650     0.798815     0.447845 
    0.735771     0.198674     0.220028 
    0.263193     0.702806     0.779585 
    0.193767     0.908937     0.835483 
    0.807690     0.406277     0.164730 
    0.067063     0.259428     0.938176 
    0.932524     0.758982     0.062631 
EA366   5.302  5.388  5.415 93.47 69.32 114.21 Sym.group:    1
1.0
    5.290761     0.334899     0.070708
   -2.518182     4.759280     0.202033
    1.824182     0.378607     5.084110
  La  Ga   H
   4   2  24
Direct
    0.204473     0.270790     0.216244 
    0.866694     0.446514     0.681320 
    0.612187     0.983481     0.115595 
    0.268346     0.991211     0.647299 
    0.488804     0.581722     0.537082 
    0.994426     0.635973     0.137461 
    0.732824     0.132098     0.450411 
    0.815376     0.351853     0.325305 
    0.275233     0.659512     0.386340 
    0.220446     0.625401     0.793544 
    0.028753     0.346890     0.951183 
    0.130016     0.863773     0.342655 
    0.531867     0.305476     0.349901 
    0.671316     0.990802     0.710407 
    0.488255     0.173571     0.894831 
    0.337553     0.634370     0.049150 
    0.744064     0.753901     0.818841 
    0.884319     0.903824     0.239896 
    0.898878     0.059849     0.669481 
    0.824508     0.765998     0.555141 
    0.268491     0.941771     0.002867 
    0.501710     0.845300     0.780631 
    0.548741     0.614163     0.917818 
    0.653183     0.385641     0.073010 
    0.778718     0.939837     0.400940 
    0.172982     0.304211     0.605439 
    0.422885     0.377074     0.798784 
    0.605793     0.611853     0.199972 
    0.891985     0.757948     0.936316 
    0.055296     0.170091     0.899891 
EA367   5.184  5.908  4.415 84.42 101.34 87.98 Sym.group:    1
1.0
    5.177388     0.071550     0.247756
    0.112868     5.899626     0.296616
   -1.076810     0.235806     4.275679
  La  Ga   H
   4   2  24
Direct
    0.611872     0.010910     0.235601 
    0.404511     0.472362     0.805851 
    0.268918     0.990957     0.691468 
    0.760598     0.522685     0.360444 
    0.106523     0.239879     0.130672 
    0.828329     0.776307     0.844522 
    0.903839     0.174896     0.494066 
    0.126170     0.677443     0.482893 
    0.928969     0.837059     0.517728 
    0.121965     0.327353     0.493104 
    0.766153     0.285289     0.079646 
    0.171379     0.718451     0.934225 
    0.876213     0.118330     0.658252 
    0.155130     0.582888     0.359390 
    0.932103     0.804958     0.205590 
    0.027801     0.359134     0.738659 
    0.628143     0.195399     0.754295 
    0.385663     0.671044     0.161245 
    0.288096     0.815020     0.282296 
    0.755740     0.321899     0.754393 
    0.360071     0.519697     0.267712 
    0.651071     0.020208     0.729076 
    0.789173     0.498354     0.860106 
    0.211572     0.933057     0.183864 
    0.022156     0.522371     0.741356 
    0.993360     0.010480     0.310328 
    0.068292     0.521792     0.097447 
    0.953837     0.037813     0.930457 
    0.439449     0.293413     0.402910 
    0.513277     0.749728     0.539164 
EA368   4.762  4.617  6.432 73.93 100.82 95.83 Sym.group:    1
1.0
    4.754823    -0.202166    -0.172006
   -0.250813     4.556121     0.704756
   -0.947858     0.775567     6.313985
  La  Ga   H
   4   2  24
Direct
    0.545410     0.721502     0.086984 
    0.450178     0.288595     0.917293 
    0.719970     0.023089     0.399710 
    0.278813     0.987220     0.603127 
    0.863514     0.054940     0.801008 
    0.129920     0.939652     0.205360 
    0.705898     0.527735     0.549522 
    0.292017     0.467925     0.448469 
    0.912602     0.576876     0.287970 
    0.175062     0.621666     0.831312 
    0.086729     0.409284     0.702074 
    0.825872     0.391974     0.172984 
    0.051994     0.362193     0.410230 
    0.986648     0.321205     0.553386 
    0.950754     0.647149     0.593996 
    0.011976     0.686955     0.453562 
    0.604028     0.682627     0.686909 
    0.383939     0.713308     0.369820 
    0.390577     0.321066     0.309768 
    0.616962     0.297147     0.637668 
    0.163934     0.467053     0.115685 
    0.836789     0.531842     0.881102 
    0.336551     0.485945     0.587361 
    0.663567     0.523688     0.410784 
    0.812639     0.098847     0.093960 
    0.183962     0.910964     0.908249 
    0.110141     0.300806     0.064578 
    0.935063     0.364990     0.887146 
    0.880123     0.689993     0.941281 
    0.076152     0.639054     0.109892 
EA369   3.661  6.354  6.298 100.13 105.87 73.49 Sym.group:    1
1.0
    3.657030    -0.097769     0.129747
    1.973837     6.038563    -0.127155
   -1.946660    -0.403774     5.975680
  La  Ga   H
   4   2  24
Direct
    0.838750     0.382181     0.619295 
    0.161601     0.614805     0.375347 
    0.003682     0.781969     0.780794 
    0.998793     0.215557     0.214473 
    0.610921     0.876463     0.119336 
    0.389236     0.120697     0.875014 
    0.136702     0.912001     0.085275 
    0.865513     0.084806     0.910714 
    0.946269     0.439932     0.973304 
    0.061284     0.963920     0.441414 
    0.054079     0.557989     0.019025 
    0.930393     0.030148     0.556932 
    0.530507     0.960248     0.449897 
    0.467407     0.456316     0.954454 
    0.449643     0.048305     0.539592 
    0.539138     0.544081     0.048378 
    0.653622     0.506524     0.289522 
    0.353852     0.288328     0.503476 
    0.348441     0.490698     0.707991 
    0.644343     0.711618     0.492692 
    0.899406     0.087133     0.698411 
    0.091664     0.702172     0.084172 
    0.087039     0.911861     0.297198 
    0.906998     0.295899     0.910522 
    0.399656     0.881760     0.673327 
    0.601323     0.675012     0.874797 
    0.600122     0.120868     0.322208 
    0.399421     0.322990     0.118620 
    0.441263     0.279373     0.725030 
    0.560023     0.728616     0.281130 
EA370   5.448  8.463  2.995 91.19 103.55 90.01 Sym.group:    1
1.0
    5.003765     0.034940    -2.153304
   -0.094094     8.462238    -0.078368
    0.506260    -0.029471     2.951450
  La  Ga   H
   4   2  24
Direct
    0.698101     0.792122     0.687841 
    0.780421     0.245334     0.793324 
    0.209847     0.706285     0.216142 
    0.277860     0.247624     0.294519 
    0.071570     0.984828     0.036344 
    0.552692     0.502915     0.589828 
    0.937901     0.119463     0.342588 
    0.875046     0.896901     0.288939 
    0.083313     0.132607     0.678301 
    0.056236     0.837802     0.648681 
    0.584777     0.351124     0.206103 
    0.678281     0.606706     0.195235 
    0.374216     0.397385     0.855661 
    0.435503     0.647598     0.836830 
    0.309689     0.062861     0.766190 
    0.675870     0.999684     0.064870 
    0.183905     0.537654     0.682837 
    0.805297     0.427191     0.303528 
    0.077182     0.471100     0.093543 
    0.901439     0.515945     0.918115 
    0.408780     0.976386     0.391546 
    0.565624     0.029830     0.547349 
    0.345862     0.866183     0.777987 
    0.454854     0.104460     0.889161 
    0.534772     0.923977     0.091158 
    0.645644     0.111588     0.230276 
    0.024871     0.578772     0.609584 
    0.121361     0.373067     0.726191 
    0.863342     0.636274     0.305942 
    0.961524     0.401871     0.437228 
EA371   3.505  6.203  6.177 90.83 90.01 90.28 Sym.group:    1
1.0
    3.504594    -0.004375    -0.018108
   -0.022427     6.203165    -0.024511
    0.030320    -0.064827     6.176306
  La  Ga   H
   4   2  24
Direct
    0.731246     0.790798     0.241948 
    0.277162     0.196857     0.245816 
    0.736674     0.179892     0.746555 
    0.264215     0.815738     0.743698 
    0.511387     0.497175     0.509039 
    0.477356     0.497375     0.980308 
    0.816287     0.527231     0.742918 
    0.180404     0.463464     0.743743 
    0.781846     0.443739     0.247448 
    0.224770     0.544804     0.242333 
    0.084039     0.352160     0.529028 
    0.930528     0.643449     0.522422 
    0.068954     0.644179     0.007905 
    0.897766     0.356857     0.030141 
    0.363285     0.012238     0.497939 
    0.637577     0.978960     0.497378 
    0.393706     0.960895     0.024348 
    0.644949     0.039502     0.033022 
    0.844346     0.679658     0.927712 
    0.109533     0.322180     0.948941 
    0.868177     0.315179     0.449543 
    0.150697     0.675301     0.441870 
    0.204406     0.859059     0.078950 
    0.798096     0.151198     0.082939 
    0.212282     0.134799     0.576422 
    0.790617     0.858499     0.573114 
    0.212273     0.117056     0.914893 
    0.795302     0.879244     0.913968 
    0.206093     0.875464     0.403258 
    0.798274     0.116690     0.405097 
EA372   3.777  3.800 10.873 85.88 83.03 60.44 Sym.group:    1
1.0
    1.887314     3.261477     0.251539
   -1.923895     3.274120     0.130128
    0.185566     0.583589    10.855800
  La  Ga   H
   4   2  24
Direct
    0.232238     0.379364     0.881563 
    0.440118     0.274829     0.113212 
    0.353611     0.401736     0.620316 
    0.288147     0.259347     0.389553 
    0.684460     0.626273     0.251576 
    0.624921     0.733789     0.752288 
    0.833536     0.817744     0.522272 
    0.350602     0.908513     0.549655 
    0.900009     0.332396     0.544960 
    0.725720     0.360637     0.464129 
    0.830898     0.814994     0.441822 
    0.381991     0.708581     0.457369 
    0.716664     0.379605     0.954267 
    0.751363     0.900801     0.957007 
    0.339100     0.809413     0.986305 
    0.904354     0.739061     0.033455 
    0.384588     0.810983     0.065073 
    0.917305     0.345504     0.038366 
    0.157450     0.985978     0.698040 
    0.886861     0.320970     0.653768 
    0.852356     0.894384     0.617661 
    0.255653     0.775834     0.372814 
    0.845420     0.173967     0.321319 
    0.907413     0.860486     0.320380 
    0.851943     0.982424     0.815252 
    0.260409     0.861150     0.892208 
    0.805526     0.257734     0.827035 
    0.932428     0.278645     0.142560 
    0.983105     0.814193     0.144735 
    0.202091     0.866398     0.192862 
EA373   5.604  5.422  4.320 89.61 90.49 90.08 Sym.group:    1
1.0
    5.601935    -0.031314    -0.143532
    0.022525     5.422208    -0.020244
    0.074299     0.044990     4.319469
  La  Ga   H
   4   2  24
Direct
    0.328172     0.691661     0.716046 
    0.672937     0.690372     0.285207 
    0.697708     0.214385     0.182164 
    0.308039     0.214614     0.820216 
    0.120110     0.869519     0.212664 
    0.878930     0.874605     0.784213 
    0.063847     0.197354     0.168105 
    0.942848     0.205441     0.836597 
    0.588842     0.928874     0.891456 
    0.412105     0.927682     0.111241 
    0.867704     0.977793     0.427667 
    0.138459     0.980712     0.568319 
    0.429418     0.011942     0.432201 
    0.560209     0.995521     0.554971 
    0.641644     0.410637     0.666099 
    0.367431     0.420636     0.337225 
    0.858223     0.435621     0.512571 
    0.146573     0.435805     0.486711 
    0.337187     0.569706     0.197000 
    0.662161     0.565293     0.804214 
    0.071522     0.230023     0.463798 
    0.932909     0.233391     0.538821 
    0.343557     0.209499     0.324305 
    0.662344     0.207967     0.679365 
    0.053405     0.594568     0.360309 
    0.949121     0.599888     0.646046 
    0.077672     0.382166     0.154111 
    0.930169     0.386075     0.847737 
    0.137052     0.504689     0.022380 
    0.868366     0.509564     0.987164 
EA374   4.987  5.208  5.081 92.46 93.29 91.67 Sym.group:    1
1.0
    4.982862     0.178686     0.092754
   -0.341581     5.192856     0.192372
   -0.370574    -0.430197     5.049067
  La  Ga   H
   4   2  24
Direct
    0.041949     0.730663     0.414765 
    0.404619     0.085116     0.725682 
    0.743425     0.394083     0.070501 
    0.961998     0.949905     0.944347 
    0.562022     0.588231     0.609908 
    0.296596     0.308087     0.285643 
    0.431612     0.063183     0.117848 
    0.116709     0.496489     0.102446 
    0.066257     0.105481     0.383110 
    0.782797     0.220767     0.707982 
    0.684522     0.787097     0.180959 
    0.245775     0.716865     0.765480 
    0.602621     0.001096     0.089732 
    0.137503     0.626516     0.992419 
    0.997309     0.091615     0.589037 
    0.388429     0.480245     0.864976 
    0.820942     0.370253     0.506572 
    0.441220     0.841225     0.415311 
    0.619846     0.681268     0.299425 
    0.183740     0.407567     0.617301 
    0.625838     0.177157     0.396332 
    0.955385     0.337338     0.430663 
    0.375401     0.924115     0.288595 
    0.269351     0.386871     0.934936 
    0.903100     0.580630     0.757868 
    0.734432     0.910522     0.588628 
    0.576233     0.758965     0.918504 
    0.343216     0.744534     0.082965 
    0.071110     0.331315     0.776640 
    0.749917     0.056097     0.335732 
EA375   5.122  6.070  5.118 78.73 112.28 74.41 Sym.group:    1
1.0
    5.121526     0.021858    -0.043608
    1.655697     3.528240     4.653665
   -1.895330    -2.621048     3.966362
  La  Ga   H
   4   2  24
Direct
    0.147209     0.321748     0.309855 
    0.658006     0.691387     0.886125 
    0.095939     0.955039     0.622719 
    0.974821     0.563358     0.614421 
    0.944773     0.003638     0.036041 
    0.573008     0.267972     0.155932 
    0.496018     0.034195     0.601559 
    0.770679     0.333511     0.749438 
    0.119405     0.213403     0.770716 
    0.535273     0.918353     0.418492 
    0.387534     0.527284     0.823712 
    0.213254     0.697986     0.382076 
    0.953858     0.723615     0.225839 
    0.632555     0.517918     0.263445 
    0.414130     0.967073     0.004782 
    0.528174     0.805582     0.315338 
    0.539930     0.176075     0.724079 
    0.602823     0.459163     0.579618 
    0.394832     0.596282     0.479212 
    0.431542     0.314449     0.726405 
    0.502225     0.683308     0.223018 
    0.547232     0.009758     0.983439 
    0.200032     0.733142     0.040353 
    0.745338     0.930967     0.319602 
    0.243532     0.555686     0.067156 
    0.782778     0.322931     0.968636 
    0.276421     0.982514     0.284749 
    0.236311     0.229171     0.981438 
    0.775714     0.273358     0.504246 
    0.777010     0.914215     0.688191 
EA376   4.860  4.903  6.320 89.99 90.40 60.31 Sym.group:    1
1.0
    2.400309     4.225774     0.050139
   -2.504100     4.215485     0.029524
   -0.071538    -0.085710     6.318914
  La  Ga   H
   4   2  24
Direct
    0.994223     0.004735     0.631310 
    0.332835     0.334593     0.060719 
    0.667310     0.667760     0.061146 
    0.001267     0.000792     0.062393 
    0.330105     0.337866     0.530343 
    0.657827     0.670628     0.530199 
    0.008425     0.997332     0.346135 
    0.804074     0.384207     0.373585 
    0.615610     0.189066     0.369128 
    0.810608     0.810951     0.377970 
    0.183653     0.627893     0.375388 
    0.368379     0.820329     0.366834 
    0.180008     0.193543     0.376399 
    0.179187     0.632605     0.816475 
    0.363756     0.821000     0.820066 
    0.185600     0.187028     0.815100 
    0.814128     0.369217     0.820278 
    0.628520     0.182362     0.819489 
    0.809559     0.820982     0.817853 
    0.654697     0.349055     0.253629 
    0.651974     0.999289     0.254966 
    0.003736     0.650563     0.251990 
    0.352268     0.647377     0.252445 
    0.356844     0.001050     0.253836 
    0.000550     0.350313     0.253050 
    0.335926     0.334213     0.767752 
    0.658233     0.673082     0.767557 
    0.499717     0.503410     0.785376 
    0.497236     0.000856     0.784704 
    0.992716     0.505470     0.778898 
EA377   4.641  5.563  5.372 71.40 96.91 91.77 Sym.group:    1
1.0
    4.631679     0.280843    -0.103730
   -0.506141     5.539113     0.070637
   -0.630761     1.597719     5.089665
  La  Ga   H
   4   2  24
Direct
    0.165718     0.887175     0.360491 
    0.227210     0.429650     0.978691 
    0.764765     0.677379     0.061977 
    0.716236     0.063476     0.592146 
    0.682263     0.557356     0.570413 
    0.143834     0.398479     0.477356 
    0.581124     0.267745     0.916442 
    0.691812     0.060768     0.979409 
    0.139135     0.176203     0.767277 
    0.193397     0.772417     0.042302 
    0.393177     0.074111     0.067322 
    0.467038     0.852049     0.157374 
    0.350243     0.223544     0.384325 
    0.395677     0.603968     0.293759 
    0.864164     0.320903     0.796641 
    0.456865     0.696152     0.703457 
    0.458429     0.299344     0.714760 
    0.670006     0.855691     0.328137 
    0.157042     0.053023     0.957527 
    0.461372     0.963587     0.892788 
    0.902336     0.090658     0.974245 
    0.504970     0.132640     0.210825 
    0.614303     0.374724     0.310388 
    0.959627     0.703017     0.703062 
    0.670570     0.346072     0.021065 
    0.780503     0.092836     0.224154 
    0.170681     0.020014     0.670599 
    0.100820     0.859894     0.764585 
    0.391376     0.853496     0.814537 
    0.912865     0.255872     0.252261 
EA378   3.771  6.481  5.521 81.21 102.94 86.82 Sym.group:    1
1.0
    3.770458     0.001041     0.088386
    0.358234     6.470706    -0.037646
   -1.360876     0.950825     5.265962
  La  Ga   H
   4   2  24
Direct
    0.270964     0.039498     0.324895 
    0.772152     0.320380     0.942984 
    0.262439     0.618270     0.973842 
    0.895300     0.989308     0.705727 
    0.018105     0.651456     0.405910 
    0.568841     0.405655     0.422937 
    0.224442     0.366008     0.792911 
    0.815324     0.984518     0.057367 
    0.462055     0.213698     0.627359 
    0.528917     0.819439     0.167441 
    0.413774     0.105395     0.778265 
    0.459791     0.694918     0.336819 
    0.801877     0.571696     0.146358 
    0.990978     0.834484     0.108220 
    0.088373     0.292779     0.655385 
    0.606513     0.759019     0.547309 
    0.436454     0.889140     0.815434 
    0.792064     0.898372     0.359375 
    0.398543     0.915327     0.021311 
    0.727925     0.727639     0.918007 
    0.336849     0.297065     0.088068 
    0.745339     0.194109     0.316130 
    0.031611     0.276092     0.497942 
    0.424051     0.532589     0.650727 
    0.265504     0.121865     0.951389 
    0.697248     0.059808     0.161146 
    0.238958     0.790066     0.611989 
    0.661654     0.689584     0.702855 
    0.909474     0.520247     0.650642 
    0.121503     0.379175     0.292330 
EA379   5.375  5.296  5.262 90.30 116.65 99.70 Sym.group:    1
1.0
    5.373644    -0.070429    -0.098910
   -0.823183     5.231148     0.014770
   -2.278882    -0.399609     4.726149
  La  Ga   H
   4   2  24
Direct
    0.017511     0.573108     0.117241 
    0.913114     0.117859     0.653344 
    0.460432     0.407556     0.821587 
    0.353714     0.217210     0.261350 
    0.416232     0.877061     0.655156 
    0.780502     0.046305     0.092297 
    0.094404     0.491187     0.785635 
    0.747480     0.376819     0.276549 
    0.433013     0.586688     0.148338 
    0.070157     0.490569     0.563701 
    0.334145     0.036474     0.910821 
    0.754798     0.464248     0.457074 
    0.221550     0.094620     0.550937 
    0.731388     0.469326     0.620746 
    0.057149     0.282307     0.383919 
    0.101925     0.926728     0.312217 
    0.914771     0.728497     0.718507 
    0.331767     0.717206     0.884379 
    0.368869     0.842858     0.271376 
    0.397612     0.581735     0.460053 
    0.710937     0.734059     0.390659 
    0.027860     0.936836     0.007628 
    0.315089     0.851427     0.088153 
    0.085235     0.775724     0.789188 
    0.602297     0.982437     0.261063 
    0.685838     0.719497     0.109348 
    0.631330     0.776286     0.471336 
    0.043707     0.678474     0.502614 
    0.719072     0.728992     0.773011 
    0.940453     0.797924     0.409473 
EA380   4.657  3.792  7.855 99.59 104.24 80.41 Sym.group:    1
1.0
    4.646827    -0.312944     0.005519
    0.881405     3.688085    -0.043835
   -1.998214    -0.777581     7.556984
  La  Ga   H
   4   2  24
Direct
    0.242354     0.319578     0.622577 
    0.458899     0.942585     0.009414 
    0.494511     0.402906     0.342735 
    0.793858     0.913831     0.600347 
    0.986135     0.872775     0.292552 
    0.905715     0.344088     0.123304 
    0.122642     0.668255     0.992401 
    0.627074     0.861026     0.303412 
    0.314073     0.881995     0.221814 
    0.028044     0.845049     0.046783 
    0.395903     0.964449     0.430353 
    0.229262     0.424339     0.099263 
    0.515322     0.478503     0.102595 
    0.922363     0.518527     0.426986 
    0.091147     0.269459     0.362866 
    0.054948     0.304035     0.921020 
    0.476897     0.805815     0.729961 
    0.503710     0.408468     0.889661 
    0.796685     0.560513     0.946948 
    0.913533     0.538478     0.773339 
    0.660333     0.310718     0.777663 
    0.055747     0.675283     0.821279 
    0.628631     0.671076     0.785865 
    0.213745     0.868103     0.749123 
    0.052577     0.163093     0.830066 
    0.725454     0.107610     0.851808 
    0.844462     0.966533     0.919319 
    0.237932     0.786870     0.519093 
    0.699391     0.440528     0.611070 
    0.322992     0.443929     0.897719 
EA381   2.881 11.122  4.083 88.16 90.02 89.80 Sym.group:    1
1.0
    2.877890     0.030769     0.125853
   -0.109218    11.101114     0.674876
   -0.178187    -0.118648     4.077810
  La  Ga   H
   4   2  24
Direct
    0.034725     0.046623     0.293731 
    0.022531     0.498463     0.536739 
    0.542840     0.810898     0.300227 
    0.525568     0.362865     0.052828 
    0.532690     0.135052     0.794746 
    0.029821     0.264390     0.543384 
    0.522350     0.541664     0.196888 
    0.536836     0.970438     0.592236 
    0.521625     0.541710     0.869043 
    0.536526     0.968326     0.996932 
    0.530778     0.183695     0.209941 
    0.021818     0.503736     0.035649 
    0.034477     0.035645     0.788760 
    0.040298     0.954338     0.758647 
    0.028042     0.229047     0.086412 
    0.536497     0.689081     0.941720 
    0.543829     0.808535     0.799404 
    0.025980     0.635282     0.828401 
    0.031977     0.699166     0.616877 
    0.032972     0.655178     0.291882 
    0.041479     0.727968     0.989476 
    0.543793     0.890391     0.803680 
    0.530554     0.641256     0.103271 
    0.042200     0.897541     0.008516 
    0.525134     0.637974     0.488232 
    0.044435     0.802297     0.938551 
    0.042288     0.888845     0.587794 
    0.520954     0.619701     0.703532 
    0.028554     0.613277     0.107538 
    0.043942     0.780596     0.635323 
EA382   5.165  5.260  5.680 77.22 86.47 118.82 Sym.group:    2
1.0
    2.604732    -4.458917     0.116674
    2.650885     4.501343     0.612143
    0.820328     0.221257     5.616478
  La  Ga   H
   4   2  24
Direct
    0.007976     0.033109     0.252659 
    0.989932     0.963404     0.750237 
    0.376101     0.741757     0.313003 
    0.621417     0.254742     0.688944 
    0.694296     0.411737     0.154438 
    0.303330     0.584715     0.847134 
    0.717107     0.749807     0.079726 
    0.984521     0.682618     0.540786 
    0.430689     0.130310     0.066408 
    0.332897     0.413832     0.604166 
    0.071453     0.449059     0.140548 
    0.654761     0.907692     0.560018 
    0.280786     0.246743     0.923241 
    0.013160     0.313640     0.461407 
    0.568191     0.866097     0.934961 
    0.665560     0.582776     0.397222 
    0.925645     0.546658     0.861863 
    0.344088     0.090944     0.441604 
    0.932201     0.254480     0.920601 
    0.696358     0.153687     0.368196 
    0.623316     0.573085     0.837295 
    0.923965     0.582295     0.369083 
    0.252005     0.875607     0.981973 
    0.317403     0.312476     0.448821 
    0.064497     0.742314     0.083845 
    0.301863     0.843281     0.632977 
    0.374326     0.423876     0.164210 
    0.073828     0.414666     0.633594 
    0.745824     0.115521     0.017306 
    0.681276     0.684293     0.554261 
EA383   5.348  5.621  5.633 79.58 117.90 117.55 Sym.group:    1
1.0
    2.933738     2.283679    -3.843910
   -1.637064     3.239413     4.292235
    2.716018    -2.498763     4.255303
  La  Ga   H
   4   2  24
Direct
    0.603628     0.829358     0.478125 
    0.305067     0.175380     0.527402 
    0.803010     0.526082     0.178361 
    0.105569     0.477695     0.826672 
    0.207528     0.000565     0.000230 
    0.711265     0.002799     0.004966 
    0.899528     0.229671     0.449505 
    0.208448     0.761587     0.544380 
    0.699591     0.539929     0.760740 
    0.400040     0.460170     0.242157 
    0.211035     0.708246     0.114174 
    0.395403     0.295688     0.894791 
    0.897548     0.894088     0.298159 
    0.719641     0.114344     0.715314 
    0.678717     0.240934     0.451314 
    0.994556     0.764771     0.551725 
    0.496851     0.560391     0.770241 
    0.173308     0.446247     0.233089 
    0.315478     0.893034     0.809190 
    0.604734     0.109840     0.194195 
    0.113920     0.194366     0.110131 
    0.816568     0.807065     0.894149 
    0.690845     0.298022     0.889469 
    0.507743     0.707848     0.111286 
    0.011460     0.109780     0.705362 
    0.186786     0.884886     0.296442 
    0.095073     0.399406     0.465283 
    0.234883     0.576112     0.533829 
    0.732936     0.538436     0.596307 
    0.595626     0.463512     0.402844 
EA384   2.839  2.831 16.134 90.00 90.02 89.99 Sym.group:    1
1.0
    2.830774    -0.048010    -0.212546
    0.051698     2.829887     0.042107
    1.196678    -0.262008    16.087464
  La  Ga   H
   4   2  24
Direct
    0.004379     0.998881     0.841031 
    0.513631     0.488692     0.154587 
    0.488994     0.504321     0.654012 
    0.003436     0.993479     0.340184 
    0.980602     0.002930     0.505655 
    0.521117     0.492943     0.989232 
    0.990015     0.004691     0.625551 
    0.503610     0.493386     0.388181 
    0.508418     0.989023     0.247601 
    0.980281     0.004895     0.715035 
    0.508681     0.491981     0.281687 
    0.481929     0.004753     0.563921 
    0.984873     0.498935     0.747267 
    0.989400     0.497392     0.436840 
    0.502115     0.499537     0.869372 
    0.014570     0.987341     0.106576 
    0.010625     0.491198     0.247079 
    0.513228     0.498724     0.780162 
    0.010669     0.988126     0.213016 
    0.016524     0.497555     0.931042 
    0.508598     0.004097     0.748022 
    0.517636     0.989948     0.057869 
    0.504339     0.995154     0.930938 
    0.022862     0.993996     0.026913 
    0.017110     0.490263     0.058022 
    0.015007     0.992138     0.978257 
    0.989890     0.503554     0.564038 
    0.475702     0.506949     0.467940 
    0.494364     0.002280     0.436707 
    0.486474     0.502904     0.516586 
EA385   3.857  3.710  4.978 72.15 75.05 86.99 Sym.group:    1
1.0
    3.840236    -0.316035     0.159634
    0.493241     3.675593     0.117391
    1.196724     1.230155     4.672972
  La  Ga   H
   2   1  12
Direct
    0.810946     0.944420     0.155086 
    0.170897     0.325413     0.591284 
    0.417854     0.596093     0.935101 
    0.761867     0.352293     0.375402 
    0.559424     0.408179     0.241961 
    0.335210     0.122911     0.038136 
    0.254518     0.903304     0.323919 
    0.418922     0.865725     0.514375 
    0.672207     0.548602     0.586459 
    0.684600     0.058043     0.574896 
    0.944237     0.849604     0.556353 
    0.018922     0.412932     0.207097 
    0.600139     0.069093     0.779463 
    0.851374     0.511110     0.936404 
    0.064361     0.774763     0.747147 
EA386   3.687  4.115  4.688 107.11 79.46 82.61 Sym.group:    1
1.0
    3.686898    -0.047961     0.025329
    0.582198     4.073579    -0.027140
    0.808036    -1.479527     4.374622
  La  Ga   H
   2   1  12
Direct
    0.193499     0.750187     0.509240 
    0.707235     0.438366     0.823095 
    0.723597     0.082767     0.228971 
    0.120479     0.655876     0.002311 
    0.091161     0.210165     0.370437 
    0.159429     0.466990     0.066329 
    0.336409     0.246855     0.562326 
    0.754345     0.517479     0.361926 
    0.053633     0.094401     0.948989 
    0.362339     0.305151     0.142508 
    0.624852     0.916272     0.697845 
    0.739144     0.700401     0.274764 
    0.362386     0.916850     0.927039 
    0.350782     0.893914     0.115384 
    0.259301     0.199572     0.791579 
EA387   3.802  4.783  3.771 77.74 90.77 104.18 Sym.group:    1
1.0
    3.769524    -0.021969     0.494297
   -1.147073     4.643551    -0.058962
   -0.526839     0.741194     3.660009
  La  Ga   H
   2   1  12
Direct
    0.511832     0.595567     0.543458 
    0.119615     0.018484     0.797095 
    0.926615     0.392328     0.128901 
    0.574757     0.929058     0.079783 
    0.398111     0.180666     0.292368 
    0.624374     0.043639     0.575812 
    0.665387     0.204077     0.834027 
    0.018359     0.606710     0.703476 
    0.073605     0.779008     0.349050 
    0.392451     0.357113     0.090877 
    0.406245     0.975815     0.258854 
    0.881153     0.014945     0.292395 
    0.326101     0.674745     0.036518 
    0.716234     0.668088     0.036577 
    0.953710     0.388228     0.547410 
EA388   4.124  4.716  3.738 111.48 102.45 76.36 Sym.group:    1
1.0
    4.094867     0.388471    -0.302351
    0.560205     3.366205    -3.255332
   -0.701173     1.457814     3.369729
  La  Ga   H
   2   1  12
Direct
    0.339522     0.283353     0.401735 
    0.694384     0.713572     0.963053 
    0.963432     0.063125     0.713131 
    0.622216     0.269078     0.969995 
    0.855752     0.136446     0.294973 
    0.790838     0.470224     0.372487 
    0.410955     0.443584     0.005391 
    0.162417     0.722484     0.327079 
    0.109838     0.410380     0.916508 
    0.179447     0.665070     0.813712 
    0.371961     0.050049     0.789691 
    0.935946     0.625016     0.472856 
    0.152774     0.878141     0.068753 
    0.440970     0.703083     0.394229 
    0.603256     0.883668     0.521185 
EA389   3.856  3.697  5.085 109.20 73.90 91.91 Sym.group:    1
1.0
    3.835424     0.327378     0.224830
   -0.441672     3.669193     0.080240
    1.284995    -1.631927     4.641764
  La  Ga   H
   2   1  12
Direct
    0.944778     0.203786     0.415422 
    0.607677     0.692475     0.969208 
    0.166255     0.141559     0.841214 
    0.997070     0.588823     0.165981 
    0.645433     0.696699     0.476373 
    0.405275     0.267409     0.132517 
    0.965846     0.797281     0.618638 
    0.715461     0.266709     0.109695 
    0.194988     0.532999     0.732785 
    0.093848     0.822117     0.012199 
    0.455628     0.543678     0.539930 
    0.615614     0.094143     0.766653 
    0.353023     0.815742     0.405544 
    0.211516     0.651150     0.320242 
    0.434837     0.097566     0.443250 
EA390   3.660  3.858  5.283 68.69 71.90 90.06 Sym.group:    1
1.0
    3.659627    -0.028218    -0.053781
    0.025842     3.857810     0.017267
    1.724019     1.887665     4.623122
  La  Ga   H
   2   1  12
Direct
    0.882684     0.045396     0.288091 
    0.411077     0.776504     0.844938 
    0.289841     0.454785     0.472202 
    0.991401     0.563681     0.252106 
    0.819626     0.636966     0.053291 
    0.433201     0.874242     0.195082 
    0.431650     0.311931     0.193401 
    0.886390     0.493737     0.931725 
    0.696526     0.414535     0.544990 
    0.182785     0.269938     0.857669 
    0.691136     0.316486     0.767031 
    0.013736     0.697362     0.645477 
    0.591047     0.222654     0.951294 
    0.877072     0.949870     0.939703 
    0.003360     0.043851     0.653514 
EA391   3.458  4.316  5.002 65.70 95.23 78.57 Sym.group:    2
1.0
    3.456132     0.089312    -0.072997
    0.747473     4.249897     0.081403
   -0.414445     2.076292     4.531954
  La  Ga   H
   2   1  12
Direct
    0.746148     0.359333     0.351995 
    0.245310     0.642342     0.645629 
    0.995215     0.000565     0.999236 
    0.521565     0.807232     0.988624 
    0.470079     0.194342     0.009069 
    0.311563     0.269233     0.107121 
    0.149665     0.565847     0.078227 
    0.679843     0.732184     0.890177 
    0.841420     0.435792     0.918875 
    0.575745     0.168225     0.742132 
    0.306332     0.118554     0.365464 
    0.415118     0.833551     0.255175 
    0.685213     0.883549     0.632905 
    0.751981     0.885036     0.299603 
    0.237294     0.116022     0.699584 
EA392   5.401  3.701  3.695 89.98 109.96 70.09 Sym.group:   44
1.0
    4.137739     0.609146    -3.417665
    1.251098     3.479808     0.143081
    1.265644    -0.594592     3.419680
  La  Ga   H
   2   1  12
Direct
    0.660070     0.480590     0.450738 
    0.204991     0.208346     0.723142 
    0.931973     0.842043     0.099610 
    0.374774     0.122422     0.309481 
    0.932564     0.844515     0.620111 
    0.271732     0.675806     0.985881 
    0.587407     0.275245     0.912376 
    0.267904     0.677468     0.529838 
    0.587696     0.758226     0.912448 
    0.276681     0.414138     0.256592 
    0.596643     0.012414     0.194071 
    0.487574     0.566338     0.865151 
    0.593488     0.013931     0.645684 
    0.932252     0.337612     0.086960 
    0.277690     0.928858     0.257303 
EA393   2.613  2.694  9.423 86.75 96.39 93.87 Sym.group:    1
1.0
    2.599415    -0.086332     0.251260
   -0.096480     2.691741     0.030556
   -1.933488     0.360044     9.215672
  La  Ga   H
   2   1  12
Direct
    0.993534     0.521969     0.360414 
    0.029406     0.553472     0.631185 
    0.585748     0.430625     0.002682 
    0.863690     0.046965     0.184738 
    0.535253     0.084012     0.730426 
    0.123353     0.956807     0.822215 
    0.492267     0.005724     0.266631 
    0.602161     0.394186     0.795806 
    0.428794     0.579314     0.191751 
    0.198731     0.195258     0.185224 
    0.814020     0.799712     0.816612 
    0.032819     0.329150     0.894048 
    0.969549     0.665481     0.137703 
    0.285282     0.949939     0.072714 
    0.517228     0.914589     0.892706 
EA394   3.559  3.839  5.053 105.01 90.81 90.29 Sym.group:    1
1.0
    3.558667    -0.042819    -0.020364
    0.023923     3.817297    -0.409488
   -0.051945    -0.780729     4.991863
  La  Ga   H
   2   1  12
Direct
    0.364048     0.489197     0.480262 
    0.608174     0.522817     0.988390 
    0.099074     0.030343     0.000394 
    0.867057     0.738190     0.545187 
    0.860394     0.198444     0.466763 
    0.203484     0.963886     0.420598 
    0.224263     0.014917     0.594309 
    0.670457     0.870214     0.365352 
    0.784815     0.171776     0.620069 
    0.076772     0.629765     0.810521 
    0.542659     0.061822     0.151068 
    0.102731     0.290543     0.784902 
    0.091325     0.731079     0.212585 
    0.860875     0.309865     0.283713 
    0.628661     0.959524     0.785833 
EA395   3.674  3.643  5.041 82.54 86.30 88.62 Sym.group:    1
1.0
    3.671064     0.039842     0.145407
    0.038680     3.634768     0.236243
    0.122551     0.327975     5.028426
  La  Ga   H
   2   1  12
Direct
    0.953943     0.953913     0.272801 
    0.047578     0.055141     0.766384 
    0.482352     0.507472     0.003250 
    0.459155     0.204169     0.344029 
    0.469049     0.747295     0.304433 
    0.247936     0.557108     0.670162 
    0.789827     0.572387     0.632092 
    0.459674     0.780121     0.470950 
    0.535763     0.190840     0.510289 
    0.774608     0.451105     0.490541 
    0.209002     0.500777     0.492355 
    0.553652     0.824847     0.711530 
    0.540829     0.229667     0.767952 
    0.793314     0.472956     0.219746 
    0.178309     0.452989     0.310669 
EA396   4.142  3.675  4.393 96.05 84.84 90.27 Sym.group:    1
1.0
    4.137400    -0.039899     0.198224
    0.026829     3.670211    -0.177169
    0.183088    -0.253000     4.381794
  La  Ga   H
   2   1  12
Direct
    0.605581     0.097411     0.511043 
    0.114170     0.577323     0.482925 
    0.966255     0.963293     0.999851 
    0.150845     0.522236     0.983803 
    0.556420     0.151992     0.011938 
    0.390202     0.259845     0.136258 
    0.280814     0.361752     0.849284 
    0.729397     0.529032     0.831482 
    0.476279     0.729267     0.145549 
    0.503599     0.660305     0.781041 
    0.684984     0.562133     0.238497 
    0.840121     0.373527     0.169918 
    0.356501     0.870579     0.835162 
    0.320347     0.901894     0.184107 
    0.878775     0.334776     0.818484 
EA397   4.561  4.579  4.568 60.18 60.08 60.24 Sym.group:    1
1.0
    2.266645     3.957955     0.025421
   -2.319503     3.947523     0.003690
   -0.025781     2.616359     3.744275
  La  Ga   H
   2   1  12
Direct
    0.246832     0.253670     0.251839 
    0.747020     0.750500     0.750474 
    0.497206     0.501264     0.501456 
    0.738163     0.997800     0.005013 
    0.253749     0.998160     0.005457 
    0.997834     0.254885     0.747276 
    0.995579     0.747377     0.257733 
    0.999927     0.995575     0.744593 
    0.256762     0.742536     0.001218 
    0.745132     0.255300     0.997069 
    0.005447     0.996219     0.256451 
    0.996553     0.742943     0.003959 
    0.251230     0.002225     0.745085 
    0.994046     0.262095     0.003334 
    0.738275     0.999377     0.258864 
EA398   4.330  3.672  4.838 110.47 107.25 69.85 Sym.group:    2
1.0
    4.327470    -0.004356     0.137915
    1.264610     3.444575     0.147752
   -1.575459    -1.411701     4.351169
  La  Ga   H
   2   1  12
Direct
    0.834794     0.276077     0.224713 
    0.167381     0.727905     0.777530 
    0.501124     0.001807     0.501230 
    0.131039     0.358826     0.999864 
    0.887469     0.315296     0.685963 
    0.348333     0.402883     0.370180 
    0.631179     0.800256     0.003138 
    0.871829     0.644975     0.002630 
    0.114114     0.689237     0.316497 
    0.654902     0.600717     0.632697 
    0.370997     0.203387     0.999977 
    0.627573     0.302092     0.817251 
    0.373976     0.702074     0.185204 
    0.863639     0.849248     0.390306 
    0.138525     0.154819     0.611986 
EA399   4.181  3.813  4.961 111.87 114.32 91.23 Sym.group:    1
1.0
    2.106333     1.177028    -3.414542
   -1.964201     3.267851     0.014988
    2.803853    -0.489193     4.063001
  La  Ga   H
   2   1  12
Direct
    0.734887     0.252727     0.501718 
    0.459506     0.498494     0.989032 
    0.965030     0.000755     0.013518 
    0.146870     0.970735     0.620454 
    0.962068     0.517900     0.995328 
    0.459723     0.728131     0.644919 
    0.286978     0.389034     0.264876 
    0.243901     0.055317     0.496715 
    0.933874     0.722804     0.417471 
    0.281709     0.535046     0.550151 
    0.669288     0.770023     0.530302 
    0.545845     0.987520     0.963155 
    0.963317     0.481445     0.291923 
    0.256156     0.931658     0.864404 
    0.292180     0.844601     0.309939 
EA400   3.787  4.902  3.742 106.80 91.35 101.07 Sym.group:    1
1.0
    3.750359    -0.171496     0.499090
   -0.791833     4.815667     0.461574
   -0.606591    -1.522850     3.363550
  La  Ga   H
   2   1  12
Direct
    0.702981     0.802063     0.588239 
    0.296684     0.202318     0.408938 
    0.986685     0.493805     0.995970 
    0.932963     0.848990     0.091187 
    0.253699     0.945740     0.845968 
    0.745750     0.054222     0.152187 
    0.069998     0.149291     0.903330 
    0.201703     0.759310     0.378418 
    0.831886     0.395280     0.350512 
    0.457590     0.822863     0.074245 
    0.533796     0.635256     0.007577 
    0.797033     0.234959     0.603413 
    0.166811     0.609660     0.658305 
    0.533366     0.178892     0.919972 
    0.450387     0.379909     0.994204 
EA401   3.807  4.319  4.528 77.72 77.85 108.29 Sym.group:    1
1.0
    3.806912     0.015629    -0.015019
   -1.372798     4.094829    -0.057633
    0.963702     1.398347     4.197869
  La  Ga   H
   2   1  12
Direct
    0.510207     0.861574     0.811020 
    0.477696     0.288656     0.274788 
    0.015113     0.554194     0.537137 
    0.946797     0.815435     0.030168 
    0.836149     0.056127     0.096250 
    0.086414     0.061535     0.708340 
    0.074735     0.471947     0.150850 
    0.898448     0.132727     0.381948 
    0.270272     0.326849     0.829872 
    0.918442     0.643224     0.892574 
    0.107786     0.893076     0.159040 
    0.906375     0.242006     0.948428 
    0.928065     0.906900     0.433208 
    0.517943     0.779243     0.332647 
    0.514105     0.377315     0.749742 
EA402   3.622  4.816  4.523 114.28 99.80 106.08 Sym.group:    1
1.0
    2.151545    -2.884216     0.412212
    2.847677     3.860094     0.424637
   -2.810209    -0.631050     3.487532
  La  Ga   H
   2   1  12
Direct
    0.003311     0.205619     0.989564 
    0.829550     0.539597     0.658737 
    0.333566     0.880768     0.366244 
    0.501614     0.110687     0.142017 
    0.460281     0.200740     0.770586 
    0.836303     0.076251     0.356878 
    0.806877     0.860850     0.124006 
    0.405021     0.637397     0.993223 
    0.328188     0.440516     0.771697 
    0.797450     0.616901     0.200868 
    0.897531     0.873806     0.501393 
    0.392149     0.938707     0.906939 
    0.210726     0.255470     0.460115 
    0.596847     0.431894     0.156395 
    0.406245     0.731448     0.633810 
EA403   3.760  3.804  4.734 102.03 77.65 91.79 Sym.group:    1
1.0
    3.743860     0.096566     0.335936
   -0.198820     3.793148    -0.206548
    0.619136    -0.704328     4.640450
  La  Ga   H
   2   1  12
Direct
    0.122434     0.310779     0.703033 
    0.879245     0.690719     0.294967 
    0.503389     0.992093     0.991767 
    0.390689     0.450759     0.310850 
    0.643345     0.236092     0.442452 
    0.611736     0.544636     0.683553 
    0.351166     0.764542     0.548638 
    0.584654     0.431582     0.872805 
    0.379113     0.926570     0.354143 
    0.417380     0.560801     0.127864 
    0.624463     0.078272     0.636609 
    0.862640     0.156145     0.103304 
    0.105102     0.192766     0.252132 
    0.132315     0.844826     0.897491 
    0.903502     0.807217     0.740438 
EA404   3.364  3.342  5.899 92.64 89.99 89.97 Sym.group:    1
1.0
    3.364044     0.020928    -0.023479
   -0.019553     3.340198    -0.092733
    0.042754    -0.108058     5.897509
  La  Ga   H
   2   1  12
Direct
    0.485748     0.664928     0.945301 
    0.983086     0.186916     0.171050 
    0.025020     0.915146     0.565228 
    0.676900     0.542028     0.597113 
    0.303600     0.294214     0.467869 
    0.425673     0.618993     0.567108 
    0.647427     0.174949     0.460948 
    0.645158     0.144881     0.769084 
    0.418960     0.142603     0.707629 
    0.977657     0.487358     0.714676 
    0.008873     0.336073     0.834238 
    0.985156     0.920443     0.861371 
    0.469863     0.889495     0.281380 
    0.906618     0.678337     0.339494 
    0.465661     0.489352     0.280864 
EA405   3.908  3.933  5.227 110.49 86.54 63.30 Sym.group:    2
1.0
    3.904752    -0.110947     0.101874
    1.865238     3.462320     0.063692
    0.128845    -2.235149     4.723731
  La  Ga   H
   2   1  12
Direct
    0.721468     0.577796     0.852996 
    0.281549     0.420090     0.145480 
    0.501275     0.998949     0.499366 
    0.646265     0.376227     0.458128 
    0.919757     0.104888     0.459665 
    0.961329     0.398947     0.448039 
    0.353019     0.623727     0.541303 
    0.082830     0.891896     0.539173 
    0.038541     0.592368     0.547201 
    0.208935     0.974847     0.192834 
    0.767077     0.439991     0.205935 
    0.812985     0.975817     0.171980 
    0.793169     0.023221     0.805066 
    0.235682     0.558371     0.792728 
    0.189716     0.021947     0.826754 
EA406   4.686  3.835  3.763 85.80 79.08 76.58 Sym.group:    2
1.0
    4.667318     0.319720     0.270336
    0.632517     3.782370     0.036512
    0.488708     0.162005     3.727629
  La  Ga   H
   2   1  12
Direct
    0.706670     0.678617     0.640016 
    0.288132     0.324423     0.363644 
    0.999828     0.999240     0.000742 
    0.734749     0.188585     0.413980 
    0.458316     0.780155     0.155972 
    0.111726     0.417913     0.891986 
    0.629460     0.932299     0.136758 
    0.306520     0.558870     0.867799 
    0.896007     0.142442     0.618846 
    0.261864     0.814164     0.586810 
    0.538868     0.222681     0.849943 
    0.882090     0.583342     0.111676 
    0.367440     0.072034     0.866297 
    0.689157     0.443138     0.136161 
    0.097428     0.860511     0.386136 
EA407   4.080  4.116  3.891 89.30 90.06 90.02 Sym.group:    3
1.0
    4.080366     0.001720    -0.004466
   -0.002970     4.115936     0.039723
    0.000490     0.009779     3.890999
  La  Ga   H
   2   1  12
Direct
    0.993111     0.498918     0.998389 
    0.557012     0.998245     0.000356 
    0.062569     0.999259     0.500237 
    0.312904     0.690242     0.327181 
    0.666988     0.320151     0.393196 
    0.314611     0.308411     0.329635 
    0.667514     0.671200     0.392477 
    0.665112     0.322294     0.606952 
    0.316537     0.688326     0.668856 
    0.662641     0.678494     0.605673 
    0.316404     0.307933     0.673262 
    0.022757     0.498292     0.498495 
    0.513363     0.998713     0.500376 
    0.487218     0.501914     0.865041 
    0.483715     0.493962     0.144302 
EA408   2.751  3.081  8.254 83.22 83.43 72.58 Sym.group:    1
1.0
    2.726002    -0.223158    -0.294508
    1.163451     2.852984    -0.009808
    1.848649     0.326648     8.037199
  La  Ga   H
   2   1  12
Direct
    0.346692     0.305371     0.496677 
    0.865174     0.991390     0.897896 
    0.937839     0.871257     0.260120 
    0.532077     0.631896     0.779375 
    0.438590     0.940604     0.722288 
    0.175827     0.452720     0.744990 
    0.784033     0.331922     0.672142 
    0.007894     0.848350     0.644015 
    0.690518     0.683262     0.590137 
    0.468046     0.564081     0.024258 
    0.357653     0.843831     0.087461 
    0.126808     0.366169     0.054566 
    0.484207     0.412436     0.233997 
    0.498696     0.201561     0.133120 
    0.882512     0.550011     0.115563 
EA409   5.246  3.715  3.697 90.54 71.48 104.56 Sym.group:    1
1.0
    5.244402     0.127591     0.010174
   -1.021166     3.571094    -0.051152
    1.159881     0.345200     3.493815
  La  Ga   H
   2   1  12
Direct
    0.689651     0.242927     0.762288 
    0.240306     0.655055     0.343518 
    0.146643     0.114671     0.890319 
    0.437680     0.648377     0.746626 
    0.427189     0.229733     0.405134 
    0.054576     0.563494     0.918766 
    0.069137     0.100607     0.414979 
    0.828325     0.501319     0.198707 
    0.836402     0.800755     0.482531 
    0.627174     0.997990     0.288550 
    0.646701     0.732773     0.009486 
    0.651258     0.737077     0.540535 
    0.641002     0.460640     0.277165 
    0.838714     0.804245     0.886419 
    0.819847     0.104997     0.198311 
EA410   2.827  5.102  5.095 99.55 73.90 73.92 Sym.group:    1
1.0
    2.827107    -0.018130    -0.009627
    1.443354     4.874334    -0.435591
    1.423977    -0.876224     4.812563
  La  Ga   H
   2   1  12
Direct
    0.932648     0.357345     0.637253 
    0.960645     0.703307     0.293803 
    0.315429     0.031510     0.973264 
    0.820818     0.973173     0.687464 
    0.500951     0.308314     0.026664 
    0.298408     0.010672     0.305047 
    0.618849     0.700958     0.979713 
    0.303517     0.684058     0.627756 
    0.613919     0.371803     0.314575 
    0.688048     0.159053     0.293668 
    0.151678     0.696090     0.834218 
    0.740845     0.410740     0.058969 
    0.205139     0.936907     0.600829 
    0.218789     0.510978     0.905891 
    0.640355     0.091253     0.482872 
EA411   3.703  6.964  2.829 78.37 112.31 87.99 Sym.group:    1
1.0
    3.682543     0.301484    -0.246926
   -0.126980     6.530831     2.414025
   -0.869177    -0.393092     2.663674
  La  Ga   H
   2   1  12
Direct
    0.196131     0.020527     0.238712 
    0.696270     0.678783     0.646767 
    0.202097     0.400954     0.528500 
    0.244553     0.778171     0.876272 
    0.922326     0.209329     0.500454 
    0.658764     0.169602     0.662043 
    0.793528     0.978896     0.559711 
    0.295922     0.560634     0.002321 
    0.773303     0.368366     0.711103 
    0.679140     0.464959     0.249075 
    0.733459     0.366731     0.985219 
    0.413561     0.282947     0.191636 
    0.649619     0.906311     0.012836 
    0.598777     0.136037     0.923078 
    0.099311     0.720318     0.326624 
EA412   5.184  5.180  2.856 102.46 90.95 119.76 Sym.group:    1
1.0
    5.180477    -0.168973     0.107651
   -2.421574     4.578397    -0.091585
   -0.128035    -0.709744     2.763538
  La  Ga   H
   2   1  12
Direct
    0.974568     0.947448     0.626807 
    0.352782     0.706418     0.494726 
    0.674497     0.362605     0.952983 
    0.043531     0.687206     0.003035 
    0.245722     0.271929     0.244285 
    0.692020     0.034482     0.140245 
    0.725356     0.132888     0.512314 
    0.912550     0.488552     0.464944 
    0.315164     0.378199     0.876565 
    0.059233     0.376409     0.868636 
    0.647406     0.695490     0.008799 
    0.400640     0.130711     0.486995 
    0.359578     0.034119     0.123753 
    0.016404     0.272572     0.226170 
    0.580129     0.496094     0.469677 
EA413   5.088  5.312  2.862 74.60 90.06 61.41 Sym.group:   71
1.0
    5.087637     0.030458     0.023670
    2.511607     4.641175     0.605000
   -0.019167     0.512883     2.815303
  La  Ga   H
   2   1  12
Direct
    0.017932     0.963239     0.250382 
    0.316050     0.366600     0.548017 
    0.666915     0.665124     0.893177 
    0.019590     0.665085     0.898858 
    0.309879     0.986898     0.737515 
    0.763274     0.294020     0.587014 
    0.632031     0.343162     0.062722 
    0.849403     0.665512     0.394372 
    0.392940     0.035298     0.211356 
    0.023526     0.343261     0.060994 
    0.570970     0.035285     0.211819 
    0.484212     0.665009     0.394904 
    0.314460     0.664636     0.899404 
    0.941360     0.294036     0.586533 
    0.702186     0.987197     0.737057 
EA414   5.259  3.785  3.597 89.87 109.87 100.93 Sym.group:    1
1.0
    4.107060    -0.082978    -3.283256
   -0.823881     3.694528     0.025996
    1.155649     0.242012     3.397204
  La  Ga   H
   2   1  12
Direct
    0.515347     0.994687     0.856963 
    0.076734     0.413538     0.134566 
    0.877929     0.846894     0.536497 
    0.706450     0.542330     0.771391 
    0.152781     0.171886     0.673704 
    0.472267     0.263457     0.334542 
    0.459155     0.471178     0.570708 
    0.359202     0.451877     0.777782 
    0.249316     0.960432     0.224557 
    0.928257     0.882470     0.063326 
    0.140146     0.644727     0.665506 
    0.704609     0.542589     0.123322 
    0.492927     0.745301     0.347383 
    0.469384     0.463510     0.111098 
    0.763134     0.250021     0.479533 
EA415   2.858  6.944  3.623 79.43 67.01 89.95 Sym.group:    8
1.0
    2.845148    -0.006706    -0.266318
    0.085532     6.910384     0.680602
    1.719121     0.334352     3.172149
  La  Ga   H
   2   1  12
Direct
    0.153837     0.327186     0.584508 
    0.048939     0.711173     0.797390 
    0.802275     0.009004     0.291782 
    0.328703     0.617280     0.241757 
    0.440704     0.314767     0.013264 
    0.486129     0.476045     0.926251 
    0.535800     0.914549     0.820822 
    0.567977     0.104800     0.760367 
    0.388541     0.863686     0.119625 
    0.451926     0.156647     0.988474 
    0.715269     0.570670     0.460430 
    0.763771     0.755084     0.362010 
    0.845514     0.252495     0.199188 
    0.064825     0.015613     0.765290 
    0.868090     0.436305     0.152675 
EA416   3.689  3.742  4.967 90.57 74.76 90.18 Sym.group:    1
1.0
    3.682600     0.051090     0.212649
   -0.062551     3.740937    -0.020183
    1.027449    -0.006307     4.860061
  La  Ga   H
   2   1  12
Direct
    0.060608     0.917641     0.116114 
    0.829020     0.417444     0.777207 
    0.454963     0.423747     0.371876 
    0.259440     0.415838     0.009658 
    0.555171     0.127073     0.121687 
    0.900675     0.420834     0.326538 
    0.193443     0.930264     0.684704 
    0.587203     0.923073     0.447135 
    0.347205     0.670596     0.723762 
    0.733226     0.914563     0.549696 
    0.337941     0.146205     0.721127 
    0.602260     0.916002     0.838118 
    0.109734     0.119722     0.463469 
    0.552869     0.711798     0.123007 
    0.105864     0.730386     0.469818 
EA417   3.715  3.701  5.379 70.32 70.31 89.52 Sym.group:    1
1.0
    3.714899    -0.006242    -0.029958
    0.036746     3.700313    -0.067203
    1.853611     1.878976     4.687402
  La  Ga   H
   2   1  12
Direct
    0.380609     0.335252     0.264677 
    0.677662     0.643124     0.722851 
    0.013005     0.975967     0.997565 
    0.339062     0.782099     0.379287 
    0.100222     0.792280     0.341005 
    0.845519     0.093759     0.339494 
    0.844712     0.515405     0.344858 
    0.543780     0.182966     0.628726 
    0.908481     0.177625     0.647124 
    0.208784     0.884012     0.657419 
    0.201125     0.552117     0.663965 
    0.502163     0.981791     0.998550 
    0.024963     0.471517     0.998367 
    0.310100     0.336857     0.648711 
    0.607266     0.787390     0.342389 
EA418   5.285  5.279  5.630 76.44 92.95 60.05 Sym.group:    1
1.0
    5.284580     0.063863    -0.024989
    2.579296     4.605144    -0.052997
   -0.285545     1.734212     5.348885
  La  Ga   H
   4   2  24
Direct
    0.261942     0.979130     0.955091 
    0.914627     0.265401     0.427421 
    0.309493     0.451812     0.362891 
    0.422295     0.421170     0.876890 
    0.830382     0.595649     0.907934 
    0.501708     0.850822     0.505047 
    0.839658     0.335238     0.774172 
    0.538541     0.684610     0.278444 
    0.509284     0.071985     0.203545 
    0.590703     0.486000     0.593050 
    0.451915     0.113643     0.693681 
    0.797489     0.691651     0.179455 
    0.861324     0.210834     0.072672 
    0.144465     0.307559     0.124149 
    0.880365     0.639575     0.519899 
    0.151556     0.917502     0.290409 
    0.593678     0.534585     0.111509 
    0.082318     0.425229     0.672282 
    0.862632     0.747919     0.317846 
    0.040614     0.765793     0.041040 
    0.219400     0.798173     0.575426 
    0.949279     0.902862     0.301196 
    0.828448     0.102654     0.779916 
    0.676489     0.119369     0.231343 
    0.677336     0.112411     0.663962 
    0.964748     0.791303     0.760873 
    0.847545     0.982929     0.012426 
    0.033451     0.796928     0.575095 
    0.711704     0.019670     0.493147 
    0.662620     0.966698     0.975766 
