PREC = Accurate
SYMPREC = 1e-06
EDIFF = 1e-5
ENCUT = 700.0
IBRION = 2
ISIF = 3
NSW = 200
ISMEAR = -5 ; SIGMA = 0.005
POTIM = 0.050
ISTART = 0
LCHARG = FALSE
LWAVE = FALSE
EDIFFG = 1e-3
KSPACING = 0.25
NPAR = 4
#PSTRESS = 2500
