chlorine-31-gpa-refined
1.0
        4.9457001686         0.0000000000         0.0000000000
        0.0000000000         3.3729000092         0.0000000000
        0.0000000000         0.0000000000         7.2976999283
   Cl
    8
Direct
     0.000000000         0.333999978         0.117999997
     0.000000000         0.666000022         0.881999970
     0.000000000         0.166000004         0.618000030
     0.000000000         0.833999978         0.382000003
     0.500000000         0.833999978         0.117999997
     0.500000000         0.166000004         0.881999970
     0.500000000         0.666000022         0.618000030
     0.500000000         0.333999978         0.382000003
